     Program PWSCF v.6.6 starts on 19Mar2021 at 21:38: 0

     R & G space division:  proc/nbgrp/npool/nimage =     192
     wavefunctions fft division:  Y-proc x Z-proc =       4     48
     wavefunctions fft division:  task group distribution
                                  #TG    x Z-proc =       4     48
     Fft bands division:     nmany     =       1
     Reading input from input_quarzo_1152
Warning: card &CELL ignored
Warning: card / ignored

     Current dimensions of program PWSCF are:
     Max number of different atomic species (ntypx) = 10
     Max number of k-points (npk) =  40000
     Max angular momentum in pseudopotentials (lmaxx) =  3

     Subspace diagonalization in iterative solution of the eigenvalue problem:
     one sub-group per band group will be used

     Found symmetry operation: I + (  0.0000 -0.5000  0.0000)
     This is a supercell, fractional translations are disabled

     bravais-lattice index     =            8
     lattice parameter (alat)  =      37.1445  a.u.
     unit-cell volume          =   97634.5934 (a.u.)^3
     number of atoms/cell      =         1152
     number of atomic types    =            2
     number of electrons       =      6144.00
     number of Kohn-Sham states=         3072
     kinetic-energy cutoff     =      40.0000  Ry
     charge density cutoff     =     320.0000  Ry
     convergence threshold     =      1.0E-10
     mixing beta               =       0.7000
     number of iterations used =            8  plain     mixing
     Exchange-correlation= PBESOL
                           (   1   4  10   8   0   0   0)

     celldm(1)=  37.144472  celldm(2)=   0.866025  celldm(3)=   2.199837
     celldm(4)=   0.000000  celldm(5)=   0.000000  celldm(6)=   0.000000

     crystal axes: (cart. coord. in units of alat)
               a(1) = (   1.000000   0.000000   0.000000 )
               a(2) = (   0.000000   0.866025   0.000000 )
               a(3) = (   0.000000   0.000000   2.199837 )

     reciprocal axes: (cart. coord. in units 2 pi/alat)
               b(1) = (  1.000000  0.000000  0.000000 )
               b(2) = (  0.000000  1.154701  0.000000 )
               b(3) = (  0.000000  0.000000  0.454579 )

     PseudoPot. # 1 for Si read from file:
     ./Si.pbesol-n-rrkjus_psl.0.1.UPF
     MD5 check sum: 84986bd6be9e79932892c86d18f23292
     Pseudo is Ultrasoft + core correction, Zval =  4.0
     Generated using "atomic" code by A. Dal Corso v.5.0.2 svn rev. 9415
     Using radial grid of 1141 points,  4 beta functions with:
                l(1) =   0
                l(2) =   0
                l(3) =   1
                l(4) =   1
     Q(r) pseudized with 0 coefficients

     PseudoPot. # 2 for O  read from file:
     ./O.pbesol-n-rrkjus_psl.0.1.UPF
     MD5 check sum: 82ba247c1b02f01b1b66dbedee2f956c
     Pseudo is Ultrasoft + core correction, Zval =  6.0
     Generated using "atomic" code by A. Dal Corso v.5.0.2 svn rev. 9415
     Using radial grid of 1095 points,  4 beta functions with:
                l(1) =   0
                l(2) =   0
                l(3) =   1
                l(4) =   1
     Q(r) pseudized with 0 coefficients

     atomic species   valence    mass     pseudopotential
        Si             4.00    47.86700     Si( 1.00)
        O              6.00    15.99940     O ( 1.00)

      2 Sym. Ops. (no inversion) found

                                    s                        frac. trans.

      isym =  1     identity

 cryst.   s( 1) = (     1          0          0      )
                  (     0          1          0      )
                  (     0          0          1      )

 cart.    s( 1) = (  1.0000000  0.0000000  0.0000000 )
                  (  0.0000000  1.0000000  0.0000000 )
                  (  0.0000000  0.0000000  1.0000000 )

      isym =  2     180 deg rotation - cart. axis [1,0,0]

 cryst.   s( 2) = (     1          0          0      )
                  (     0         -1          0      )
                  (     0          0         -1      )

 cart.    s( 2) = (  1.0000000  0.0000000  0.0000000 )
                  (  0.0000000 -1.0000000  0.0000000 )
                  (  0.0000000  0.0000000 -1.0000000 )

     point group C_2  (2)
     there are  2 classes
     the character table:

       E     C2
A      1.00  1.00
B      1.00 -1.00

     the symmetry operations in each class and the name of the first element:

     E        1
          identity
     C2       2
          180 deg rotation - cart. axis [1,0,0]

   Cartesian axes

     site n.     atom                  positions (alat units)
         1           Si  tau(   1) = (   0.1172837   0.0000000   0.0000000  )
         2           Si  tau(   2) = (   0.1172837   0.4330127   0.0000000  )
         3           Si  tau(   3) = (   0.3672837   0.0000000   0.0000000  )
         4           Si  tau(   4) = (   0.3672837   0.4330127   0.0000000  )
         5           Si  tau(   5) = (   0.6172837   0.0000000   0.0000000  )
         6           Si  tau(   6) = (   0.6172837   0.4330127   0.0000000  )
         7           Si  tau(   7) = (   0.8672837   0.0000000   0.0000000  )
         8           Si  tau(   8) = (   0.8672837   0.4330127   0.0000000  )
         9           Si  tau(   9) = (   0.2422837   0.2165063   0.0000000  )
        10           Si  tau(  10) = (   0.2422837   0.6495190   0.0000000  )
        11           Si  tau(  11) = (   0.4922837   0.2165063   0.0000000  )
        12           Si  tau(  12) = (   0.4922837   0.6495190   0.0000000  )
        13           Si  tau(  13) = (   0.7422837   0.2165063   0.0000000  )
        14           Si  tau(  14) = (   0.7422837   0.6495190   0.0000000  )
        15           Si  tau(  15) = (   0.9922837   0.2165063   0.0000000  )
        16           Si  tau(  16) = (   0.9922837   0.6495190   0.0000000  )
        17           O   tau(  17) = (   0.0696567   0.3743553   0.0318126  )
        18           O   tau(  18) = (   0.0696567   0.8073680   0.0318126  )
        19           O   tau(  19) = (   0.3196567   0.3743553   0.0318126  )
        20           O   tau(  20) = (   0.3196567   0.8073680   0.0318126  )
        21           O   tau(  21) = (   0.5696567   0.3743553   0.0318126  )
        22           O   tau(  22) = (   0.5696567   0.8073680   0.0318126  )
        23           O   tau(  23) = (   0.8196567   0.3743553   0.0318126  )
        24           O   tau(  24) = (   0.8196567   0.8073680   0.0318126  )
        25           O   tau(  25) = (   0.1946567   0.1578489   0.0318126  )
        26           O   tau(  26) = (   0.1946567   0.5908616   0.0318126  )
        27           O   tau(  27) = (   0.4446567   0.1578489   0.0318126  )
        28           O   tau(  28) = (   0.4446567   0.5908616   0.0318126  )
        29           O   tau(  29) = (   0.6946567   0.1578489   0.0318126  )
        30           O   tau(  30) = (   0.6946567   0.5908616   0.0318126  )
        31           O   tau(  31) = (   0.9446567   0.1578489   0.0318126  )
        32           O   tau(  32) = (   0.9446567   0.5908616   0.0318126  )
        33           O   tau(  33) = (   0.1643728   0.0309958   0.0598473  )
        34           O   tau(  34) = (   0.1643728   0.4640085   0.0598473  )
        35           O   tau(  35) = (   0.4143728   0.0309958   0.0598473  )
        36           O   tau(  36) = (   0.4143728   0.4640085   0.0598473  )
        37           O   tau(  37) = (   0.6643728   0.0309958   0.0598473  )
        38           O   tau(  38) = (   0.6643728   0.4640085   0.0598473  )
        39           O   tau(  39) = (   0.9143728   0.0309958   0.0598473  )
        40           O   tau(  40) = (   0.9143728   0.4640085   0.0598473  )
        41           O   tau(  41) = (   0.0393728   0.2475022   0.0598473  )
        42           O   tau(  42) = (   0.0393728   0.6805149   0.0598473  )
        43           O   tau(  43) = (   0.2893728   0.2475022   0.0598473  )
        44           O   tau(  44) = (   0.2893728   0.6805149   0.0598473  )
        45           O   tau(  45) = (   0.5393728   0.2475022   0.0598473  )
        46           O   tau(  46) = (   0.5393728   0.6805149   0.0598473  )
        47           O   tau(  47) = (   0.7893728   0.2475022   0.0598473  )
        48           O   tau(  48) = (   0.7893728   0.6805149   0.0598473  )
        49           Si  tau(  49) = (   0.1913582   0.1015707   0.0916599  )
        50           Si  tau(  50) = (   0.1913582   0.5345834   0.0916599  )
        51           Si  tau(  51) = (   0.4413582   0.1015707   0.0916599  )
        52           Si  tau(  52) = (   0.4413582   0.5345834   0.0916599  )
        53           Si  tau(  53) = (   0.6913582   0.1015707   0.0916599  )
        54           Si  tau(  54) = (   0.6913582   0.5345834   0.0916599  )
        55           Si  tau(  55) = (   0.9413582   0.1015707   0.0916599  )
        56           Si  tau(  56) = (   0.9413582   0.5345834   0.0916599  )
        57           Si  tau(  57) = (   0.0663582   0.3180770   0.0916599  )
        58           Si  tau(  58) = (   0.0663582   0.7510897   0.0916599  )
        59           Si  tau(  59) = (   0.3163582   0.3180770   0.0916599  )
        60           Si  tau(  60) = (   0.3163582   0.7510897   0.0916599  )
[...]
       985           O   tau( 985) = (   0.0393728   0.1855106   1.8650103  )
       986           O   tau( 986) = (   0.0393728   0.6185233   1.8650103  )
       987           O   tau( 987) = (   0.2893728   0.1855106   1.8650103  )
       988           O   tau( 988) = (   0.2893728   0.6185233   1.8650103  )
       989           O   tau( 989) = (   0.5393728   0.1855106   1.8650103  )
       990           O   tau( 990) = (   0.5393728   0.6185233   1.8650103  )
       991           O   tau( 991) = (   0.7893728   0.1855106   1.8650103  )
       992           O   tau( 992) = (   0.7893728   0.6185233   1.8650103  )
       993           O   tau( 993) = (   0.0696567   0.0586574   1.8930449  )
       994           O   tau( 994) = (   0.0696567   0.4916701   1.8930449  )
       995           O   tau( 995) = (   0.3196567   0.0586574   1.8930449  )
       996           O   tau( 996) = (   0.3196567   0.4916701   1.8930449  )
       997           O   tau( 997) = (   0.5696567   0.0586574   1.8930449  )
       998           O   tau( 998) = (   0.5696567   0.4916701   1.8930449  )
       999           O   tau( 999) = (   0.8196567   0.0586574   1.8930449  )
      1000           O   tau(1000) = (   0.8196567   0.4916701   1.8930449  )
      1001           O   tau(1001) = (   0.1946567   0.2751638   1.8930449  )
      1002           O   tau(1002) = (   0.1946567   0.7081765   1.8930449  )
      1003           O   tau(1003) = (   0.4446567   0.2751638   1.8930449  )
      1004           O   tau(1004) = (   0.4446567   0.7081765   1.8930449  )
      1005           O   tau(1005) = (   0.6946567   0.2751638   1.8930449  )
      1006           O   tau(1006) = (   0.6946567   0.7081765   1.8930449  )
      1007           O   tau(1007) = (   0.9446567   0.2751638   1.8930449  )
      1008           O   tau(1008) = (   0.9446567   0.7081765   1.8930449  )
[...]
     atom   10 type  1   force =     0.00006484   -0.00000001    0.00000001
     atom   11 type  1   force =     0.00006485    0.00000001   -0.00000001
     atom   12 type  1   force =     0.00006485   -0.00000001    0.00000001
     atom   13 type  1   force =     0.00006485    0.00000001   -0.00000001
     atom   14 type  1   force =     0.00006485   -0.00000001    0.00000001
     atom   15 type  1   force =     0.00006485    0.00000001   -0.00000001
     atom   16 type  1   force =     0.00006485   -0.00000001    0.00000001
     atom   17 type  2   force =    -0.01665656   -0.00100379   -0.00964975
     atom   18 type  2   force =    -0.01665655   -0.00100388   -0.00964977
     atom   19 type  2   force =    -0.01665656   -0.00100379   -0.00964975
     atom   20 type  2   force =    -0.01665655   -0.00100388   -0.00964977
     atom   21 type  2   force =    -0.01665656   -0.00100379   -0.00964975
     atom   22 type  2   force =    -0.01665655   -0.00100388   -0.00964977
     atom   23 type  2   force =    -0.01665656   -0.00100379   -0.00964975
     atom   24 type  2   force =    -0.01665655   -0.00100388   -0.00964977
     atom   25 type  2   force =    -0.01665656   -0.00100379   -0.00964975
     atom   26 type  2   force =    -0.01665655   -0.00100388   -0.00964977
     atom   27 type  2   force =    -0.01665656   -0.00100379   -0.00964975
     atom   28 type  2   force =    -0.01665655   -0.00100388   -0.00964977
     atom   29 type  2   force =    -0.01665656   -0.00100379   -0.00964975
     atom   30 type  2   force =    -0.01665655   -0.00100388   -0.00964977
     atom   31 type  2   force =    -0.01665656   -0.00100379   -0.00964976
     atom   32 type  2   force =    -0.01665655   -0.00100388   -0.00964977
     atom   33 type  2   force =     0.00730283   -0.01382945    0.00980814
     atom   34 type  2   force =     0.00730284   -0.01382945    0.00980814
     atom   35 type  2   force =     0.00730283   -0.01382945    0.00980814
     atom   36 type  2   force =     0.00730284   -0.01382945    0.00980814
     atom   37 type  2   force =     0.00730283   -0.01382945    0.00980814
     atom   38 type  2   force =     0.00730283   -0.01382945    0.00980814
     atom   39 type  2   force =     0.00730283   -0.01382945    0.00980814
     atom   40 type  2   force =     0.00730283   -0.01382945    0.00980814
     atom   41 type  2   force =     0.00730283   -0.01382945    0.00980814
     atom   42 type  2   force =     0.00730283   -0.01382945    0.00980814
     atom   43 type  2   force =     0.00730283   -0.01382945    0.00980814
     atom   44 type  2   force =     0.00730283   -0.01382945    0.00980814
     atom   45 type  2   force =     0.00730284   -0.01382945    0.00980814
     atom   46 type  2   force =     0.00730283   -0.01382945    0.00980814
     atom   47 type  2   force =     0.00730284   -0.01382945    0.00980814
     atom   48 type  2   force =     0.00730283   -0.01382945    0.00980814
     atom   49 type  1   force =    -0.00002608    0.00005416   -0.00000767
     atom   50 type  1   force =    -0.00002608    0.00005415   -0.00000766
     atom   51 type  1   force =    -0.00002608    0.00005415   -0.00000767
     atom   52 type  1   force =    -0.00002608    0.00005414   -0.00000765
     atom   53 type  1   force =    -0.00002608    0.00005415   -0.00000767
     atom   54 type  1   force =    -0.00002608    0.00005414   -0.00000765
     atom   55 type  1   force =    -0.00002608    0.00005415   -0.00000767
     atom   56 type  1   force =    -0.00002608    0.00005414   -0.00000765
     atom   57 type  1   force =    -0.00002608    0.00005415   -0.00000767
     atom   58 type  1   force =    -0.00002608    0.00005414   -0.00000766
     atom   59 type  1   force =    -0.00002608    0.00005415   -0.00000767
     atom   60 type  1   force =    -0.00002608    0.00005414   -0.00000765
[...]
     atom 1138 type  2   force =    -0.01665653    0.00100396    0.00964979
     atom 1139 type  2   force =    -0.01665655    0.00100388    0.00964977
     atom 1140 type  2   force =    -0.01665653    0.00100396    0.00964979
     atom 1141 type  2   force =    -0.01665655    0.00100388    0.00964977
     atom 1142 type  2   force =    -0.01665653    0.00100396    0.00964979
     atom 1143 type  2   force =    -0.01665655    0.00100388    0.00964977
     atom 1144 type  2   force =    -0.01665653    0.00100397    0.00964979
     atom 1145 type  2   force =    -0.01665655    0.00100388    0.00964977
     atom 1146 type  2   force =    -0.01665653    0.00100396    0.00964979
     atom 1147 type  2   force =    -0.01665655    0.00100388    0.00964977
     atom 1148 type  2   force =    -0.01665653    0.00100396    0.00964979
     atom 1149 type  2   force =    -0.01665655    0.00100388    0.00964977
     atom 1150 type  2   force =    -0.01665653    0.00100396    0.00964979
     atom 1151 type  2   force =    -0.01665655    0.00100388    0.00964977
     atom 1152 type  2   force =    -0.01665653    0.00100396    0.00964980
     The Hubbard contrib.    to forces
     atom    1 type  1   force =     0.00000000    0.00000000    0.00000000
     atom    2 type  1   force =     0.00000000    0.00000000    0.00000000
     atom    3 type  1   force =     0.00000000    0.00000000    0.00000000
     atom    4 type  1   force =     0.00000000    0.00000000    0.00000000
     atom    5 type  1   force =     0.00000000    0.00000000    0.00000000
     atom    6 type  1   force =     0.00000000    0.00000000    0.00000000
     atom    7 type  1   force =     0.00000000    0.00000000    0.00000000
     atom    8 type  1   force =     0.00000000    0.00000000    0.00000000
     atom    9 type  1   force =     0.00000000    0.00000000    0.00000000
     atom   10 type  1   force =     0.00000000    0.00000000    0.00000000
     atom   11 type  1   force =     0.00000000    0.00000000    0.00000000
     atom   12 type  1   force =     0.00000000    0.00000000    0.00000000
     atom   13 type  1   force =     0.00000000    0.00000000    0.00000000
     atom   14 type  1   force =     0.00000000    0.00000000    0.00000000
     atom   15 type  1   force =     0.00000000    0.00000000    0.00000000
     atom   16 type  1   force =     0.00000000    0.00000000    0.00000000
     atom   17 type  2   force =     0.00000000    0.00000000    0.00000000
     atom   18 type  2   force =     0.00000000    0.00000000    0.00000000
     atom   19 type  2   force =     0.00000000    0.00000000    0.00000000
     atom   20 type  2   force =     0.00000000    0.00000000    0.00000000
     atom   21 type  2   force =     0.00000000    0.00000000    0.00000000
     atom   22 type  2   force =     0.00000000    0.00000000    0.00000000
     atom   23 type  2   force =     0.00000000    0.00000000    0.00000000
     atom   24 type  2   force =     0.00000000    0.00000000    0.00000000
     atom   25 type  2   force =     0.00000000    0.00000000    0.00000000
     atom   26 type  2   force =     0.00000000    0.00000000    0.00000000
     atom   27 type  2   force =     0.00000000    0.00000000    0.00000000
     atom   28 type  2   force =     0.00000000    0.00000000    0.00000000
     atom   29 type  2   force =     0.00000000    0.00000000    0.00000000
     atom   30 type  2   force =     0.00000000    0.00000000    0.00000000
     atom   31 type  2   force =     0.00000000    0.00000000    0.00000000
     atom   32 type  2   force =     0.00000000    0.00000000    0.00000000
     atom   33 type  2   force =     0.00000000    0.00000000    0.00000000
     atom   34 type  2   force =     0.00000000    0.00000000    0.00000000
     atom   35 type  2   force =     0.00000000    0.00000000    0.00000000
     atom   36 type  2   force =     0.00000000    0.00000000    0.00000000
     atom   37 type  2   force =     0.00000000    0.00000000    0.00000000
     atom   38 type  2   force =     0.00000000    0.00000000    0.00000000
     atom   39 type  2   force =     0.00000000    0.00000000    0.00000000
     atom   40 type  2   force =     0.00000000    0.00000000    0.00000000
     atom   41 type  2   force =     0.00000000    0.00000000    0.00000000
     atom   42 type  2   force =     0.00000000    0.00000000    0.00000000
     atom   43 type  2   force =     0.00000000    0.00000000    0.00000000
     atom   44 type  2   force =     0.00000000    0.00000000    0.00000000
     atom   45 type  2   force =     0.00000000    0.00000000    0.00000000
     atom   46 type  2   force =     0.00000000    0.00000000    0.00000000
     atom   47 type  2   force =     0.00000000    0.00000000    0.00000000
     atom   48 type  2   force =     0.00000000    0.00000000    0.00000000
     atom   49 type  1   force =     0.00000000    0.00000000    0.00000000
     atom   50 type  1   force =     0.00000000    0.00000000    0.00000000
     atom   51 type  1   force =     0.00000000    0.00000000    0.00000000
     atom   52 type  1   force =     0.00000000    0.00000000    0.00000000
     atom   53 type  1   force =     0.00000000    0.00000000    0.00000000
     atom   54 type  1   force =     0.00000000    0.00000000    0.00000000
     atom   55 type  1   force =     0.00000000    0.00000000    0.00000000
     atom   56 type  1   force =     0.00000000    0.00000000    0.00000000
     atom   57 type  1   force =     0.00000000    0.00000000    0.00000000
     atom   58 type  1   force =     0.00000000    0.00000000    0.00000000
     atom   59 type  1   force =     0.00000000    0.00000000    0.00000000
     atom   60 type  1   force =     0.00000000    0.00000000    0.00000000
[...]
     atom 1138 type  2   force =     0.00000000    0.00000000    0.00000000
     atom 1139 type  2   force =     0.00000000    0.00000000    0.00000000
     atom 1140 type  2   force =     0.00000000    0.00000000    0.00000000
     atom 1141 type  2   force =     0.00000000    0.00000000    0.00000000
     atom 1142 type  2   force =     0.00000000    0.00000000    0.00000000
     atom 1143 type  2   force =     0.00000000    0.00000000    0.00000000
     atom 1144 type  2   force =     0.00000000    0.00000000    0.00000000
     atom 1145 type  2   force =     0.00000000    0.00000000    0.00000000
     atom 1146 type  2   force =     0.00000000    0.00000000    0.00000000
     atom 1147 type  2   force =     0.00000000    0.00000000    0.00000000
     atom 1148 type  2   force =     0.00000000    0.00000000    0.00000000
     atom 1149 type  2   force =     0.00000000    0.00000000    0.00000000
     atom 1150 type  2   force =     0.00000000    0.00000000    0.00000000
     atom 1151 type  2   force =     0.00000000    0.00000000    0.00000000
     atom 1152 type  2   force =     0.00000000    0.00000000    0.00000000
     The SCF correction term to forces
     atom    1 type  1   force =    -0.00000002    0.00000000    0.00000000
     atom    2 type  1   force =     0.00000000   -0.00000000   -0.00000000
     atom    3 type  1   force =     0.00000004    0.00000000    0.00000000
     atom    4 type  1   force =    -0.00000003   -0.00000000   -0.00000000
     atom    5 type  1   force =     0.00000003    0.00000000    0.00000000
     atom    6 type  1   force =     0.00000006   -0.00000000   -0.00000000
     atom    7 type  1   force =     0.00000005    0.00000000    0.00000000
     atom    8 type  1   force =     0.00000003   -0.00000000   -0.00000000
     atom    9 type  1   force =    -0.00000001    0.00000001   -0.00000000
     atom   10 type  1   force =    -0.00000001   -0.00000001    0.00000000
     atom   11 type  1   force =     0.00000003   -0.00000000    0.00000002
     atom   12 type  1   force =     0.00000003    0.00000000   -0.00000002
     atom   13 type  1   force =     0.00000004   -0.00000001    0.00000000
     atom   14 type  1   force =     0.00000004    0.00000001   -0.00000000
     atom   15 type  1   force =     0.00000002   -0.00000000   -0.00000000
     atom   16 type  1   force =     0.00000002    0.00000000    0.00000000
     atom   17 type  2   force =     0.00000026   -0.00000008    0.00000015
     atom   18 type  2   force =     0.00000024   -0.00000009    0.00000016
     atom   19 type  2   force =     0.00000026   -0.00000010    0.00000017
     atom   20 type  2   force =     0.00000027   -0.00000010    0.00000018
     atom   21 type  2   force =     0.00000031   -0.00000010    0.00000017
     atom   22 type  2   force =     0.00000030   -0.00000010    0.00000016
     atom   23 type  2   force =     0.00000029   -0.00000007    0.00000015
     atom   24 type  2   force =     0.00000029   -0.00000007    0.00000016
     atom   25 type  2   force =     0.00000024   -0.00000007    0.00000016
     atom   26 type  2   force =     0.00000025   -0.00000009    0.00000016
     atom   27 type  2   force =     0.00000029   -0.00000009    0.00000016
     atom   28 type  2   force =     0.00000027   -0.00000008    0.00000016
     atom   29 type  2   force =     0.00000032   -0.00000008    0.00000016
     atom   30 type  2   force =     0.00000030   -0.00000008    0.00000015
     atom   31 type  2   force =     0.00000027   -0.00000010    0.00000016
     atom   32 type  2   force =     0.00000029   -0.00000008    0.00000018
     atom   33 type  2   force =    -0.00000025    0.00000025   -0.00000019
     atom   34 type  2   force =    -0.00000024    0.00000024   -0.00000019
     atom   35 type  2   force =    -0.00000019    0.00000020   -0.00000014
     atom   36 type  2   force =    -0.00000023    0.00000023   -0.00000017
     atom   37 type  2   force =    -0.00000019    0.00000019   -0.00000017
     atom   38 type  2   force =    -0.00000019    0.00000020   -0.00000016
     atom   39 type  2   force =    -0.00000023    0.00000021   -0.00000017
     atom   40 type  2   force =    -0.00000021    0.00000021   -0.00000016
     atom   41 type  2   force =    -0.00000021    0.00000020   -0.00000015
     atom   42 type  2   force =    -0.00000022    0.00000021   -0.00000015
     atom   43 type  2   force =    -0.00000024    0.00000023   -0.00000016
     atom   44 type  2   force =    -0.00000023    0.00000020   -0.00000015
     atom   45 type  2   force =    -0.00000018    0.00000020   -0.00000014
     atom   46 type  2   force =    -0.00000019    0.00000022   -0.00000016
     atom   47 type  2   force =    -0.00000020    0.00000019   -0.00000016
     atom   48 type  2   force =    -0.00000020    0.00000022   -0.00000018
     atom   49 type  1   force =    -0.00000004    0.00000007   -0.00000002
     atom   50 type  1   force =    -0.00000003    0.00000005   -0.00000002
     atom   51 type  1   force =    -0.00000001    0.00000002   -0.00000001
     atom   52 type  1   force =    -0.00000001    0.00000004   -0.00000000
     atom   53 type  1   force =     0.00000001    0.00000003   -0.00000001
     atom   54 type  1   force =     0.00000001    0.00000002    0.00000000
     atom   55 type  1   force =    -0.00000001    0.00000001   -0.00000001
     atom   56 type  1   force =    -0.00000002    0.00000003    0.00000001
     atom   57 type  1   force =    -0.00000001    0.00000002   -0.00000002
     atom   58 type  1   force =    -0.00000004    0.00000002   -0.00000001
     atom   59 type  1   force =    -0.00000004    0.00000004   -0.00000003
     atom   60 type  1   force =    -0.00000002    0.00000002   -0.00000001
[...]
     atom 1138 type  2   force =     0.00000026    0.00000008   -0.00000015
     atom 1139 type  2   force =     0.00000027    0.00000010   -0.00000018
     atom 1140 type  2   force =     0.00000026    0.00000010   -0.00000017
     atom 1141 type  2   force =     0.00000030    0.00000010   -0.00000016
     atom 1142 type  2   force =     0.00000031    0.00000010   -0.00000017
     atom 1143 type  2   force =     0.00000029    0.00000007   -0.00000016
     atom 1144 type  2   force =     0.00000029    0.00000007   -0.00000015
     atom 1145 type  2   force =     0.00000025    0.00000009   -0.00000016
     atom 1146 type  2   force =     0.00000024    0.00000007   -0.00000016
     atom 1147 type  2   force =     0.00000027    0.00000008   -0.00000016
     atom 1148 type  2   force =     0.00000029    0.00000009   -0.00000016
     atom 1149 type  2   force =     0.00000030    0.00000008   -0.00000015
     atom 1150 type  2   force =     0.00000032    0.00000008   -0.00000016
     atom 1151 type  2   force =     0.00000029    0.00000008   -0.00000018
     atom 1152 type  2   force =     0.00000027    0.00000010   -0.00000016

     Total force =     0.161898     Total SCF correction =     0.000009

     Writing output data file ./SiO2_OR_1152_us.save/

     General routines

     Parallel routines

   This run was terminated on:  22:20:44  19Mar2021

   JOB DONE.