     Program PWSCF v.6.6 starts on 29Jun2021 at 21: 1:23

     R & G space division:  proc/nbgrp/npool/nimage =      96
     wavefunctions fft division:  Y-proc x Z-proc =       6     16
     wavefunctions fft division:  task group distribution
                                  #TG    x Z-proc =       6     16
     Fft bands division:     nmany     =       1
     Reading input from ../inputs/input_quarzo_288
Warning: card &CELL ignored
Warning: card / ignored

     Current dimensions of program PWSCF are:
     Max number of different atomic species (ntypx) = 10
     Max number of k-points (npk) =  40000
     Max angular momentum in pseudopotentials (lmaxx) =  3

     Subspace diagonalization in iterative solution of the eigenvalue problem:
     one sub-group per band group will be used

     Found symmetry operation: I + (  0.0000  0.5000  0.0000)
     This is a supercell, fractional translations are disabled

     Title:
     'srtio_bulk'

     bravais-lattice index     =            8
     lattice parameter (alat)  =      18.5722  a.u.
     unit-cell volume          =   24408.6485 (a.u.)^3
     number of atoms/cell      =          288
     number of atomic types    =            2
     number of electrons       =      1536.00
     number of Kohn-Sham states=          768
     kinetic-energy cutoff     =      40.0000  Ry
     charge density cutoff     =     320.0000  Ry
     convergence threshold     =      1.0E-10
     mixing beta               =       0.7000
     number of iterations used =            8  plain     mixing
     Exchange-correlation= PBESOL
                           (   1   4  10   8   0   0   0)

     celldm(1)=  18.572236  celldm(2)=   1.732051  celldm(3)=   2.199837
     celldm(4)=   0.000000  celldm(5)=   0.000000  celldm(6)=   0.000000

     crystal axes: (cart. coord. in units of alat)
               a(1) = (   1.000000   0.000000   0.000000 )
               a(2) = (   0.000000   1.732051   0.000000 )
               a(3) = (   0.000000   0.000000   2.199837 )

     reciprocal axes: (cart. coord. in units 2 pi/alat)
               b(1) = (  1.000000  0.000000  0.000000 )
               b(2) = (  0.000000  0.577350  0.000000 )
               b(3) = (  0.000000  0.000000  0.454579 )

     PseudoPot. # 1 for Si read from file:
     ./Si.pbesol-n-rrkjus_psl.0.1.UPF
     MD5 check sum: 84986bd6be9e79932892c86d18f23292
     Pseudo is Ultrasoft + core correction, Zval =  4.0
     Generated using "atomic" code by A. Dal Corso v.5.0.2 svn rev. 9415
     Using radial grid of 1141 points,  4 beta functions with:
                l(1) =   0
                l(2) =   0
                l(3) =   1
                l(4) =   1
     Q(r) pseudized with 0 coefficients

     PseudoPot. # 2 for O  read from file:
     ./O.pbesol-n-rrkjus_psl.0.1.UPF
     MD5 check sum: 860b55360c6eac1e4db712ce01d51bd8
     Pseudo is Ultrasoft + core correction, Zval =  6.0
     Generated using "atomic" code by A. Dal Corso v.5.0.2 svn rev. 9415
     Using radial grid of 1095 points,  4 beta functions with:
                l(1) =   0
                l(2) =   0
                l(3) =   1
                l(4) =   1
     Q(r) pseudized with 0 coefficients

     atomic species   valence    mass     pseudopotential
        Si             4.00    47.86700     Si( 1.00)
        O              6.00    15.99940     O ( 1.00)

      2 Sym. Ops. (no inversion) found

                                    s                        frac. trans.

      isym =  1     identity

 cryst.   s( 1) = (     1          0          0      )
                  (     0          1          0      )
                  (     0          0          1      )

 cart.    s( 1) = (  1.0000000  0.0000000  0.0000000 )
                  (  0.0000000  1.0000000  0.0000000 )
                  (  0.0000000  0.0000000  1.0000000 )

      isym =  2     180 deg rotation - cart. axis [1,0,0]

 cryst.   s( 2) = (     1          0          0      )
                  (     0         -1          0      )
                  (     0          0         -1      )

 cart.    s( 2) = (  1.0000000  0.0000000  0.0000000 )
                  (  0.0000000 -1.0000000  0.0000000 )
                  (  0.0000000  0.0000000 -1.0000000 )

     point group C_2  (2)
     there are  2 classes
     the character table:

       E     C2
A      1.00  1.00
B      1.00 -1.00

     the symmetry operations in each class and the name of the first element:

     E        1
          identity
     C2       2
          180 deg rotation - cart. axis [1,0,0]

   Cartesian axes

     site n.     atom                  positions (alat units)
         1           Si  tau(   1) = (   0.2345674   0.0000000   0.0000000  )
         2           Si  tau(   2) = (   0.2345674   0.8660254   0.0000000  )
         3           Si  tau(   3) = (   0.7345674   0.0000000   0.0000000  )
         4           Si  tau(   4) = (   0.7345674   0.8660254   0.0000000  )
         5           Si  tau(   5) = (   0.4845674   0.4330127   0.0000000  )
         6           Si  tau(   6) = (   0.4845674   1.2990381   0.0000000  )
         7           Si  tau(   7) = (   0.9845674   0.4330127   0.0000000  )
         8           Si  tau(   8) = (   0.9845674   1.2990381   0.0000000  )
         9           O   tau(   9) = (   0.1393135   0.7487106   0.0636252  )
        10           O   tau(  10) = (   0.1393135   1.6147360   0.0636252  )
        11           O   tau(  11) = (   0.6393135   0.7487106   0.0636252  )
        12           O   tau(  12) = (   0.6393135   1.6147360   0.0636252  )
        13           O   tau(  13) = (   0.3893135   0.3156979   0.0636252  )
        14           O   tau(  14) = (   0.3893135   1.1817233   0.0636252  )
        15           O   tau(  15) = (   0.8893135   0.3156979   0.0636252  )
        16           O   tau(  16) = (   0.8893135   1.1817233   0.0636252  )
        17           O   tau(  17) = (   0.3287456   0.0619916   0.1196945  )
        18           O   tau(  18) = (   0.3287456   0.9280170   0.1196945  )
        19           O   tau(  19) = (   0.8287456   0.0619916   0.1196945  )
        20           O   tau(  20) = (   0.8287456   0.9280170   0.1196945  )
        21           O   tau(  21) = (   0.0787456   0.4950043   0.1196945  )
        22           O   tau(  22) = (   0.0787456   1.3610297   0.1196945  )
        23           O   tau(  23) = (   0.5787456   0.4950043   0.1196945  )
        24           O   tau(  24) = (   0.5787456   1.3610297   0.1196945  )
        25           Si  tau(  25) = (   0.3827163   0.2031413   0.1833198  )
        26           Si  tau(  26) = (   0.3827163   1.0691667   0.1833198  )
        27           Si  tau(  27) = (   0.8827163   0.2031413   0.1833198  )
        28           Si  tau(  28) = (   0.8827163   1.0691667   0.1833198  )
        29           Si  tau(  29) = (   0.1327163   0.6361540   0.1833198  )
        30           Si  tau(  30) = (   0.1327163   1.5021794   0.1833198  )
        31           Si  tau(  31) = (   0.6327163   0.6361540   0.1833198  )
        32           Si  tau(  32) = (   0.6327163   1.5021794   0.1833198  )
        33           O   tau(  33) = (   0.0319409   0.1793064   0.2469450  )
        34           O   tau(  34) = (   0.0319409   1.0453318   0.2469450  )
        35           O   tau(  35) = (   0.5319409   0.1793064   0.2469450  )
        36           O   tau(  36) = (   0.5319409   1.0453318   0.2469450  )
        37           O   tau(  37) = (   0.2819409   0.6123191   0.2469450  )
        38           O   tau(  38) = (   0.2819409   1.4783445   0.2469450  )
        39           O   tau(  39) = (   0.7819409   0.6123191   0.2469450  )
        40           O   tau(  40) = (   0.7819409   1.4783445   0.2469450  )
        41           O   tau(  41) = (   0.0319409   0.6867190   0.3030143  )
        42           O   tau(  42) = (   0.0319409   1.5527444   0.3030143  )
        43           O   tau(  43) = (   0.5319409   0.6867190   0.3030143  )
        44           O   tau(  44) = (   0.5319409   1.5527444   0.3030143  )
        45           O   tau(  45) = (   0.2819409   0.2537063   0.3030143  )
        46           O   tau(  46) = (   0.2819409   1.1197317   0.3030143  )
        47           O   tau(  47) = (   0.7819409   0.2537063   0.3030143  )
        48           O   tau(  48) = (   0.7819409   1.1197317   0.3030143  )
        49           Si  tau(  49) = (   0.3827163   0.6628841   0.3666395  )
        50           Si  tau(  50) = (   0.3827163   1.5289095   0.3666395  )
        51           Si  tau(  51) = (   0.8827163   0.6628841   0.3666395  )
        52           Si  tau(  52) = (   0.8827163   1.5289095   0.3666395  )
        53           Si  tau(  53) = (   0.1327163   0.2298714   0.3666395  )
        54           Si  tau(  54) = (   0.1327163   1.0958968   0.3666395  )
        55           Si  tau(  55) = (   0.6327163   0.2298714   0.3666395  )
        56           Si  tau(  56) = (   0.6327163   1.0958968   0.3666395  )
        57           O   tau(  57) = (   0.3287456   0.8040338   0.4302648  )
        58           O   tau(  58) = (   0.3287456   1.6700592   0.4302648  )
        59           O   tau(  59) = (   0.8287456   0.8040338   0.4302648  )
        60           O   tau(  60) = (   0.8287456   1.6700592   0.4302648  )
[...]
       274           O   tau( 274) = (   0.3287456   1.6700592   2.0801427  )
       275           O   tau( 275) = (   0.8287456   0.8040338   2.0801427  )
       276           O   tau( 276) = (   0.8287456   1.6700592   2.0801427  )
       277           O   tau( 277) = (   0.0787456   0.3710211   2.0801427  )
       278           O   tau( 278) = (   0.0787456   1.2370465   2.0801427  )
       279           O   tau( 279) = (   0.5787456   0.3710211   2.0801427  )
       280           O   tau( 280) = (   0.5787456   1.2370465   2.0801427  )
       281           O   tau( 281) = (   0.1393135   0.1173148   2.1362120  )
       282           O   tau( 282) = (   0.1393135   0.9833403   2.1362120  )
       283           O   tau( 283) = (   0.6393135   0.1173148   2.1362120  )
       284           O   tau( 284) = (   0.6393135   0.9833403   2.1362120  )
       285           O   tau( 285) = (   0.3893135   0.5503275   2.1362120  )
       286           O   tau( 286) = (   0.3893135   1.4163530   2.1362120  )
       287           O   tau( 287) = (   0.8893135   0.5503275   2.1362120  )
       288           O   tau( 288) = (   0.8893135   1.4163530   2.1362120  )

   Crystallographic axes

     site n.     atom                  positions (cryst. coord.)
         1           Si  tau(   1) = (  0.2345674  0.0000000  0.0000000  )
         2           Si  tau(   2) = (  0.2345674  0.5000000  0.0000000  )
         3           Si  tau(   3) = (  0.7345674  0.0000000  0.0000000  )
         4           Si  tau(   4) = (  0.7345674  0.5000000  0.0000000  )
         5           Si  tau(   5) = (  0.4845674  0.2500000  0.0000000  )
         6           Si  tau(   6) = (  0.4845674  0.7500000  0.0000000  )
         7           Si  tau(   7) = (  0.9845674  0.2500000  0.0000000  )
         8           Si  tau(   8) = (  0.9845674  0.7500000  0.0000000  )
[...]
     atom   10 type  2   force =    -0.01665655   -0.00100394   -0.00964979
     atom   11 type  2   force =    -0.01665661   -0.00100349   -0.00964968
     atom   12 type  2   force =    -0.01665655   -0.00100394   -0.00964979
     atom   13 type  2   force =    -0.01665661   -0.00100348   -0.00964969
     atom   14 type  2   force =    -0.01665655   -0.00100394   -0.00964979
     atom   15 type  2   force =    -0.01665660   -0.00100349   -0.00964969
     atom   16 type  2   force =    -0.01665655   -0.00100394   -0.00964978
     atom   17 type  2   force =     0.00730282   -0.01382960    0.00980814
     atom   18 type  2   force =     0.00730282   -0.01382960    0.00980814
     atom   19 type  2   force =     0.00730281   -0.01382960    0.00980814
     atom   20 type  2   force =     0.00730282   -0.01382960    0.00980814
     atom   21 type  2   force =     0.00730282   -0.01382960    0.00980814
     atom   22 type  2   force =     0.00730282   -0.01382959    0.00980815
     atom   23 type  2   force =     0.00730282   -0.01382960    0.00980814
     atom   24 type  2   force =     0.00730281   -0.01382959    0.00980814
     atom   25 type  1   force =    -0.00002608    0.00005401   -0.00000756
     atom   26 type  1   force =    -0.00002608    0.00005397   -0.00000749
     atom   27 type  1   force =    -0.00002607    0.00005403   -0.00000754
     atom   28 type  1   force =    -0.00002608    0.00005398   -0.00000747
     atom   29 type  1   force =    -0.00002606    0.00005403   -0.00000755
     atom   30 type  1   force =    -0.00002609    0.00005395   -0.00000745
     atom   31 type  1   force =    -0.00002608    0.00005402   -0.00000754
     atom   32 type  1   force =    -0.00002608    0.00005397   -0.00000748
     atom   33 type  2   force =     0.00865654   -0.01296591   -0.00981445
     atom   34 type  2   force =     0.00865654   -0.01296590   -0.00981445
     atom   35 type  2   force =     0.00865654   -0.01296591   -0.00981445
     atom   36 type  2   force =     0.00865654   -0.01296590   -0.00981445
     atom   37 type  2   force =     0.00865654   -0.01296591   -0.00981445
     atom   38 type  2   force =     0.00865654   -0.01296590   -0.00981445
     atom   39 type  2   force =     0.00865654   -0.01296591   -0.00981445
     atom   40 type  2   force =     0.00865654   -0.01296590   -0.00981445
     atom   41 type  2   force =     0.00865654    0.01296578    0.00981446
     atom   42 type  2   force =     0.00865654    0.01296579    0.00981446
     atom   43 type  2   force =     0.00865654    0.01296578    0.00981445
     atom   44 type  2   force =     0.00865654    0.01296579    0.00981446
     atom   45 type  2   force =     0.00865654    0.01296578    0.00981445
     atom   46 type  2   force =     0.00865654    0.01296579    0.00981446
     atom   47 type  2   force =     0.00865654    0.01296578    0.00981445
     atom   48 type  2   force =     0.00865654    0.01296579    0.00981446
     atom   49 type  1   force =    -0.00002607   -0.00005401    0.00000746
     atom   50 type  1   force =    -0.00002608   -0.00005406    0.00000755
     atom   51 type  1   force =    -0.00002608   -0.00005401    0.00000749
     atom   52 type  1   force =    -0.00002606   -0.00005405    0.00000756
     atom   53 type  1   force =    -0.00002607   -0.00005400    0.00000748
     atom   54 type  1   force =    -0.00002608   -0.00005405    0.00000757
     atom   55 type  1   force =    -0.00002608   -0.00005400    0.00000747
     atom   56 type  1   force =    -0.00002608   -0.00005404    0.00000756
     atom   57 type  2   force =     0.00730281    0.01382950   -0.00980813
     atom   58 type  2   force =     0.00730280    0.01382950   -0.00980812
     atom   59 type  2   force =     0.00730281    0.01382950   -0.00980812
     atom   60 type  2   force =     0.00730281    0.01382950   -0.00980812
[...]
     atom  274 type  2   force =     0.00730281    0.01382950   -0.00980812
     atom  275 type  2   force =     0.00730281    0.01382950   -0.00980813
     atom  276 type  2   force =     0.00730280    0.01382950   -0.00980812
     atom  277 type  2   force =     0.00730280    0.01382950   -0.00980813
     atom  278 type  2   force =     0.00730281    0.01382950   -0.00980812
     atom  279 type  2   force =     0.00730280    0.01382950   -0.00980812
     atom  280 type  2   force =     0.00730281    0.01382950   -0.00980812
     atom  281 type  2   force =    -0.01665656    0.00100385    0.00964977
     atom  282 type  2   force =    -0.01665650    0.00100427    0.00964987
     atom  283 type  2   force =    -0.01665656    0.00100385    0.00964977
     atom  284 type  2   force =    -0.01665650    0.00100428    0.00964986
     atom  285 type  2   force =    -0.01665656    0.00100386    0.00964977
     atom  286 type  2   force =    -0.01665650    0.00100427    0.00964987
     atom  287 type  2   force =    -0.01665656    0.00100385    0.00964976
     atom  288 type  2   force =    -0.01665650    0.00100428    0.00964987
     The Hubbard contrib.    to forces
     atom    1 type  1   force =     0.00000000    0.00000000    0.00000000
     atom    2 type  1   force =     0.00000000    0.00000000    0.00000000
     atom    3 type  1   force =     0.00000000    0.00000000    0.00000000
     atom    4 type  1   force =     0.00000000    0.00000000    0.00000000
     atom    5 type  1   force =     0.00000000    0.00000000    0.00000000
     atom    6 type  1   force =     0.00000000    0.00000000    0.00000000
     atom    7 type  1   force =     0.00000000    0.00000000    0.00000000
     atom    8 type  1   force =     0.00000000    0.00000000    0.00000000
     atom    9 type  2   force =     0.00000000    0.00000000    0.00000000
     atom   10 type  2   force =     0.00000000    0.00000000    0.00000000
     atom   11 type  2   force =     0.00000000    0.00000000    0.00000000
     atom   12 type  2   force =     0.00000000    0.00000000    0.00000000
     atom   13 type  2   force =     0.00000000    0.00000000    0.00000000
     atom   14 type  2   force =     0.00000000    0.00000000    0.00000000
     atom   15 type  2   force =     0.00000000    0.00000000    0.00000000
     atom   16 type  2   force =     0.00000000    0.00000000    0.00000000
     atom   17 type  2   force =     0.00000000    0.00000000    0.00000000
     atom   18 type  2   force =     0.00000000    0.00000000    0.00000000
     atom   19 type  2   force =     0.00000000    0.00000000    0.00000000
     atom   20 type  2   force =     0.00000000    0.00000000    0.00000000
     atom   21 type  2   force =     0.00000000    0.00000000    0.00000000
     atom   22 type  2   force =     0.00000000    0.00000000    0.00000000
     atom   23 type  2   force =     0.00000000    0.00000000    0.00000000
     atom   24 type  2   force =     0.00000000    0.00000000    0.00000000
     atom   25 type  1   force =     0.00000000    0.00000000    0.00000000
     atom   26 type  1   force =     0.00000000    0.00000000    0.00000000
     atom   27 type  1   force =     0.00000000    0.00000000    0.00000000
     atom   28 type  1   force =     0.00000000    0.00000000    0.00000000
     atom   29 type  1   force =     0.00000000    0.00000000    0.00000000
     atom   30 type  1   force =     0.00000000    0.00000000    0.00000000
     atom   31 type  1   force =     0.00000000    0.00000000    0.00000000
     atom   32 type  1   force =     0.00000000    0.00000000    0.00000000
     atom   33 type  2   force =     0.00000000    0.00000000    0.00000000
     atom   34 type  2   force =     0.00000000    0.00000000    0.00000000
     atom   35 type  2   force =     0.00000000    0.00000000    0.00000000
     atom   36 type  2   force =     0.00000000    0.00000000    0.00000000
     atom   37 type  2   force =     0.00000000    0.00000000    0.00000000
     atom   38 type  2   force =     0.00000000    0.00000000    0.00000000
     atom   39 type  2   force =     0.00000000    0.00000000    0.00000000
     atom   40 type  2   force =     0.00000000    0.00000000    0.00000000
     atom   41 type  2   force =     0.00000000    0.00000000    0.00000000
     atom   42 type  2   force =     0.00000000    0.00000000    0.00000000
     atom   43 type  2   force =     0.00000000    0.00000000    0.00000000
     atom   44 type  2   force =     0.00000000    0.00000000    0.00000000
     atom   45 type  2   force =     0.00000000    0.00000000    0.00000000
     atom   46 type  2   force =     0.00000000    0.00000000    0.00000000
     atom   47 type  2   force =     0.00000000    0.00000000    0.00000000
     atom   48 type  2   force =     0.00000000    0.00000000    0.00000000
     atom   49 type  1   force =     0.00000000    0.00000000    0.00000000
     atom   50 type  1   force =     0.00000000    0.00000000    0.00000000
     atom   51 type  1   force =     0.00000000    0.00000000    0.00000000
     atom   52 type  1   force =     0.00000000    0.00000000    0.00000000
     atom   53 type  1   force =     0.00000000    0.00000000    0.00000000
     atom   54 type  1   force =     0.00000000    0.00000000    0.00000000
     atom   55 type  1   force =     0.00000000    0.00000000    0.00000000
     atom   56 type  1   force =     0.00000000    0.00000000    0.00000000
     atom   57 type  2   force =     0.00000000    0.00000000    0.00000000
     atom   58 type  2   force =     0.00000000    0.00000000    0.00000000
     atom   59 type  2   force =     0.00000000    0.00000000    0.00000000
     atom   60 type  2   force =     0.00000000    0.00000000    0.00000000
[...]
     atom  274 type  2   force =     0.00000000    0.00000000    0.00000000
     atom  275 type  2   force =     0.00000000    0.00000000    0.00000000
     atom  276 type  2   force =     0.00000000    0.00000000    0.00000000
     atom  277 type  2   force =     0.00000000    0.00000000    0.00000000
     atom  278 type  2   force =     0.00000000    0.00000000    0.00000000
     atom  279 type  2   force =     0.00000000    0.00000000    0.00000000
     atom  280 type  2   force =     0.00000000    0.00000000    0.00000000
     atom  281 type  2   force =     0.00000000    0.00000000    0.00000000
     atom  282 type  2   force =     0.00000000    0.00000000    0.00000000
     atom  283 type  2   force =     0.00000000    0.00000000    0.00000000
     atom  284 type  2   force =     0.00000000    0.00000000    0.00000000
     atom  285 type  2   force =     0.00000000    0.00000000    0.00000000
     atom  286 type  2   force =     0.00000000    0.00000000    0.00000000
     atom  287 type  2   force =     0.00000000    0.00000000    0.00000000
     atom  288 type  2   force =     0.00000000    0.00000000    0.00000000
     The SCF correction term to forces
     atom    1 type  1   force =     0.00000089    0.00000000    0.00000000
     atom    2 type  1   force =    -0.00000003   -0.00000000   -0.00000000
     atom    3 type  1   force =    -0.00000026    0.00000000    0.00000000
     atom    4 type  1   force =    -0.00000023   -0.00000000   -0.00000000
     atom    5 type  1   force =    -0.00000020    0.00000004   -0.00000000
     atom    6 type  1   force =    -0.00000020   -0.00000004    0.00000000
     atom    7 type  1   force =     0.00000005   -0.00000013   -0.00000021
     atom    8 type  1   force =     0.00000005    0.00000013    0.00000021
     atom    9 type  2   force =    -0.00000042    0.00000017   -0.00000070
     atom   10 type  2   force =     0.00000033    0.00000014   -0.00000005
     atom   11 type  2   force =    -0.00000092    0.00000005   -0.00000047
     atom   12 type  2   force =    -0.00000094    0.00000030   -0.00000064
     atom   13 type  2   force =    -0.00000051    0.00000038   -0.00000072
     atom   14 type  2   force =    -0.00000071    0.00000037   -0.00000067
     atom   15 type  2   force =    -0.00000074    0.00000033   -0.00000049
     atom   16 type  2   force =    -0.00000051    0.00000039   -0.00000053
     atom   17 type  2   force =     0.00000045   -0.00000101    0.00000031
     atom   18 type  2   force =     0.00000028   -0.00000060    0.00000018
     atom   19 type  2   force =     0.00000008   -0.00000063    0.00000057
     atom   20 type  2   force =     0.00000028   -0.00000061    0.00000048
     atom   21 type  2   force =     0.00000040   -0.00000069    0.00000017
     atom   22 type  2   force =     0.00000056   -0.00000084    0.00000058
     atom   23 type  2   force =     0.00000004   -0.00000074    0.00000021
     atom   24 type  2   force =     0.00000007   -0.00000080    0.00000023
     atom   25 type  1   force =     0.00000003   -0.00000027   -0.00000008
     atom   26 type  1   force =     0.00000007    0.00000000   -0.00000016
     atom   27 type  1   force =     0.00000004    0.00000004    0.00000025
     atom   28 type  1   force =     0.00000008    0.00000006    0.00000011
     atom   29 type  1   force =     0.00000034    0.00000005    0.00000001
     atom   30 type  1   force =     0.00000016   -0.00000046    0.00000052
     atom   31 type  1   force =    -0.00000015   -0.00000011    0.00000021
     atom   32 type  1   force =    -0.00000005   -0.00000009    0.00000001
     atom   33 type  2   force =     0.00000037   -0.00000076   -0.00000023
     atom   34 type  2   force =     0.00000047   -0.00000055   -0.00000039
     atom   35 type  2   force =     0.00000038   -0.00000083   -0.00000062
     atom   36 type  2   force =     0.00000024   -0.00000069   -0.00000049
     atom   37 type  2   force =     0.00000060   -0.00000083   -0.00000061
     atom   38 type  2   force =     0.00000031   -0.00000069   -0.00000059
     atom   39 type  2   force =     0.00000019   -0.00000088   -0.00000029
     atom   40 type  2   force =     0.00000044   -0.00000071   -0.00000018
     atom   41 type  2   force =     0.00000041    0.00000072    0.00000071
     atom   42 type  2   force =     0.00000048    0.00000074    0.00000093
     atom   43 type  2   force =     0.00000035    0.00000073    0.00000072
     atom   44 type  2   force =     0.00000023    0.00000073    0.00000054
     atom   45 type  2   force =     0.00000040    0.00000067    0.00000053
     atom   46 type  2   force =     0.00000037    0.00000078    0.00000035
     atom   47 type  2   force =     0.00000036    0.00000076    0.00000074
     atom   48 type  2   force =     0.00000026    0.00000083    0.00000085
     atom   49 type  1   force =     0.00000018   -0.00000010   -0.00000017
     atom   50 type  1   force =    -0.00000017   -0.00000004   -0.00000014
     atom   51 type  1   force =    -0.00000006   -0.00000014    0.00000033
     atom   52 type  1   force =     0.00000026    0.00000006    0.00000015
     atom   53 type  1   force =    -0.00000001   -0.00000007   -0.00000002
     atom   54 type  1   force =    -0.00000004    0.00000012    0.00000021
     atom   55 type  1   force =     0.00000011    0.00000003   -0.00000005
     atom   56 type  1   force =    -0.00000005    0.00000018    0.00000015
     atom   57 type  2   force =     0.00000019    0.00000053    0.00000002
     atom   58 type  2   force =     0.00000005    0.00000049   -0.00000021
     atom   59 type  2   force =     0.00000009    0.00000070    0.00000010
     atom   60 type  2   force =     0.00000042    0.00000063   -0.00000023
[...]
     atom  274 type  2   force =     0.00000045    0.00000101   -0.00000031
     atom  275 type  2   force =     0.00000028    0.00000061   -0.00000048
     atom  276 type  2   force =     0.00000008    0.00000063   -0.00000057
     atom  277 type  2   force =     0.00000056    0.00000084   -0.00000058
     atom  278 type  2   force =     0.00000040    0.00000069   -0.00000017
     atom  279 type  2   force =     0.00000007    0.00000080   -0.00000023
     atom  280 type  2   force =     0.00000004    0.00000074   -0.00000021
     atom  281 type  2   force =     0.00000033   -0.00000014    0.00000005
     atom  282 type  2   force =    -0.00000042   -0.00000017    0.00000070
     atom  283 type  2   force =    -0.00000094   -0.00000030    0.00000064
     atom  284 type  2   force =    -0.00000092   -0.00000005    0.00000047
     atom  285 type  2   force =    -0.00000071   -0.00000037    0.00000067
     atom  286 type  2   force =    -0.00000051   -0.00000038    0.00000072
     atom  287 type  2   force =    -0.00000051   -0.00000039    0.00000053
     atom  288 type  2   force =    -0.00000074   -0.00000033    0.00000049

     Total force =     0.080949     Total SCF correction =     0.000014

     Writing output data file ./SiO2_OR_288_us.save/

     General routines

     Parallel routines

   This run was terminated on:  21: 4:55  29Jun2021

   JOB DONE.