     Program PWSCF v.6.6 starts on 28Jun2021 at 20: 5:13

     R & G space division:  proc/nbgrp/npool/nimage =      96
     wavefunctions fft division:  Y-proc x Z-proc =       8     12
     wavefunctions fft division:  task group distribution
                                  #TG    x Z-proc =       8     12
     Fft bands division:     nmany     =       1
     Reading input from ../inputs/input_quarzo_144
Warning: card &CELL ignored
Warning: card / ignored

     Current dimensions of program PWSCF are:
     Max number of different atomic species (ntypx) = 10
     Max number of k-points (npk) =  40000
     Max angular momentum in pseudopotentials (lmaxx) =  3

     Subspace diagonalization in iterative solution of the eigenvalue problem:
     one sub-group per band group will be used

     Found symmetry operation: I + ( -0.0000  0.5000  0.0000)
     This is a supercell, fractional translations are disabled

     Title:
     'srtio_bulk'

     bravais-lattice index     =            8
     lattice parameter (alat)  =      18.5722  a.u.
     unit-cell volume          =   12204.3243 (a.u.)^3
     number of atoms/cell      =          144
     number of atomic types    =            2
     number of electrons       =       768.00
     number of Kohn-Sham states=          384
     kinetic-energy cutoff     =      40.0000  Ry
     charge density cutoff     =     320.0000  Ry
     convergence threshold     =      1.0E-10
     mixing beta               =       0.7000
     number of iterations used =            8  plain     mixing
     Exchange-correlation= PBESOL
                           (   1   4  10   8   0   0   0)

     celldm(1)=  18.572236  celldm(2)=   1.732051  celldm(3)=   1.099919
     celldm(4)=   0.000000  celldm(5)=   0.000000  celldm(6)=   0.000000

     crystal axes: (cart. coord. in units of alat)
               a(1) = (   1.000000   0.000000   0.000000 )
               a(2) = (   0.000000   1.732051   0.000000 )
               a(3) = (   0.000000   0.000000   1.099919 )

     reciprocal axes: (cart. coord. in units 2 pi/alat)
               b(1) = (  1.000000  0.000000  0.000000 )
               b(2) = (  0.000000  0.577350  0.000000 )
               b(3) = (  0.000000  0.000000  0.909158 )

     PseudoPot. # 1 for Si read from file:
     ./Si.pbesol-n-rrkjus_psl.0.1.UPF
     MD5 check sum: 84986bd6be9e79932892c86d18f23292
     Pseudo is Ultrasoft + core correction, Zval =  4.0
     Generated using "atomic" code by A. Dal Corso v.5.0.2 svn rev. 9415
     Using radial grid of 1141 points,  4 beta functions with:
                l(1) =   0
                l(2) =   0
                l(3) =   1
                l(4) =   1
     Q(r) pseudized with 0 coefficients

     PseudoPot. # 2 for O  read from file:
     ./O.pbesol-n-rrkjus_psl.0.1.UPF
     MD5 check sum: 860b55360c6eac1e4db712ce01d51bd8
     Pseudo is Ultrasoft + core correction, Zval =  6.0
     Generated using "atomic" code by A. Dal Corso v.5.0.2 svn rev. 9415
     Using radial grid of 1095 points,  4 beta functions with:
                l(1) =   0
                l(2) =   0
                l(3) =   1
                l(4) =   1
     Q(r) pseudized with 0 coefficients

     atomic species   valence    mass     pseudopotential
        Si             4.00    47.86700     Si( 1.00)
        O              6.00    15.99940     O ( 1.00)

      2 Sym. Ops. (no inversion) found

                                    s                        frac. trans.

      isym =  1     identity

 cryst.   s( 1) = (     1          0          0      )
                  (     0          1          0      )
                  (     0          0          1      )

 cart.    s( 1) = (  1.0000000  0.0000000  0.0000000 )
                  (  0.0000000  1.0000000  0.0000000 )
                  (  0.0000000  0.0000000  1.0000000 )

      isym =  2     180 deg rotation - cart. axis [1,0,0]

 cryst.   s( 2) = (     1          0          0      )
                  (     0         -1          0      )
                  (     0          0         -1      )

 cart.    s( 2) = (  1.0000000  0.0000000  0.0000000 )
                  (  0.0000000 -1.0000000  0.0000000 )
                  (  0.0000000  0.0000000 -1.0000000 )

     point group C_2  (2)
     there are  2 classes
     the character table:

       E     C2
A      1.00  1.00
B      1.00 -1.00

     the symmetry operations in each class and the name of the first element:

     E        1
          identity
     C2       2
          180 deg rotation - cart. axis [1,0,0]

   Cartesian axes

     site n.     atom                  positions (alat units)
         1           Si  tau(   1) = (   0.2336019   0.0000000   0.0000000  )
         2           Si  tau(   2) = (   0.2336018   0.8660254   0.0000000  )
         3           Si  tau(   3) = (   0.7336019   0.0000000   0.0000000  )
         4           Si  tau(   4) = (   0.7336017   0.8660254   0.0000000  )
         5           Si  tau(   5) = (   0.4836018   0.4330124  -0.0000000  )
         6           Si  tau(   6) = (   0.4836018   1.2990384   0.0000000  )
         7           Si  tau(   7) = (   0.9836018   0.4330124  -0.0000000  )
         8           Si  tau(   8) = (   0.9836018   1.2990384   0.0000000  )
         9           O   tau(   9) = (   0.1375593   0.7487730   0.0636614  )
        10           O   tau(  10) = (   0.1375592   1.6147982   0.0636615  )
        11           O   tau(  11) = (   0.6375593   0.7487730   0.0636614  )
        12           O   tau(  12) = (   0.6375593   1.6147982   0.0636615  )
        13           O   tau(  13) = (   0.3875593   0.3157603   0.0636613  )
        14           O   tau(  14) = (   0.3875592   1.1817854   0.0636616  )
        15           O   tau(  15) = (   0.8875594   0.3157604   0.0636613  )
        16           O   tau(  16) = (   0.8875592   1.1817854   0.0636616  )
        17           O   tau(  17) = (   0.3291810   0.0609329   0.1197170  )
        18           O   tau(  18) = (   0.3291809   0.9269582   0.1197169  )
        19           O   tau(  19) = (   0.8291810   0.0609330   0.1197170  )
        20           O   tau(  20) = (   0.8291810   0.9269583   0.1197169  )
        21           O   tau(  21) = (   0.0791811   0.4939458   0.1197171  )
        22           O   tau(  22) = (   0.0791809   1.3599708   0.1197169  )
        23           O   tau(  23) = (   0.5791810   0.4939457   0.1197171  )
        24           O   tau(  24) = (   0.5791809   1.3599709   0.1197169  )
        25           Si  tau(  25) = (   0.3832116   0.2025318   0.1833528  )
        26           Si  tau(  26) = (   0.3832117   1.0685575   0.1833528  )
        27           Si  tau(  27) = (   0.8832116   0.2025318   0.1833528  )
        28           Si  tau(  28) = (   0.8832116   1.0685575   0.1833528  )
        29           Si  tau(  29) = (   0.1332116   0.6355445   0.1833528  )
        30           Si  tau(  30) = (   0.1332116   1.5015703   0.1833528  )
        31           Si  tau(  31) = (   0.6332115   0.6355445   0.1833528  )
        32           Si  tau(  32) = (   0.6332116   1.5015702   0.1833528  )
        33           O   tau(  33) = (   0.0332472   0.1785583   0.2462572  )
        34           O   tau(  34) = (   0.0332472   1.0445836   0.2462571  )
        35           O   tau(  35) = (   0.5332472   0.1785583   0.2462572  )
        36           O   tau(  36) = (   0.5332472   1.0445836   0.2462571  )
        37           O   tau(  37) = (   0.2832472   0.6115710   0.2462572  )
        38           O   tau(  38) = (   0.2832472   1.4775963   0.2462571  )
        39           O   tau(  39) = (   0.7832472   0.6115709   0.2462572  )
        40           O   tau(  40) = (   0.7832472   1.4775963   0.2462571  )
        41           O   tau(  41) = (   0.0332472   0.6874672   0.3037021  )
        42           O   tau(  42) = (   0.0332473   1.5534926   0.3037020  )
        43           O   tau(  43) = (   0.5332472   0.6874672   0.3037021  )
        44           O   tau(  44) = (   0.5332473   1.5534926   0.3037021  )
        45           O   tau(  45) = (   0.2832473   0.2544545   0.3037021  )
        46           O   tau(  46) = (   0.2832472   1.1204798   0.3037021  )
        47           O   tau(  47) = (   0.7832472   0.2544545   0.3037021  )
        48           O   tau(  48) = (   0.7832473   1.1204798   0.3037020  )
        49           Si  tau(  49) = (   0.3832117   0.6634933   0.3666066  )
        50           Si  tau(  50) = (   0.3832116   1.5295190   0.3666066  )
        51           Si  tau(  51) = (   0.8832116   0.6634933   0.3666066  )
        52           Si  tau(  52) = (   0.8832116   1.5295190   0.3666066  )
        53           Si  tau(  53) = (   0.1332116   0.2304805   0.3666066  )
        54           Si  tau(  54) = (   0.1332116   1.0965063   0.3666066  )
        55           Si  tau(  55) = (   0.6332116   0.2304806   0.3666066  )
        56           Si  tau(  56) = (   0.6332115   1.0965063   0.3666066  )
        57           O   tau(  57) = (   0.3291810   0.8050926   0.4302424  )
        58           O   tau(  58) = (   0.3291810   1.6711178   0.4302423  )
        59           O   tau(  59) = (   0.8291810   0.8050925   0.4302423  )
        60           O   tau(  60) = (   0.8291810   1.6711178   0.4302423  )
[...]
       130           O   tau( 130) = (   0.3291810   1.6711179   0.9802016  )
       131           O   tau( 131) = (   0.8291810   0.8050925   0.9802017  )
       132           O   tau( 132) = (   0.8291810   1.6711179   0.9802016  )
       133           O   tau( 133) = (   0.0791809   0.3720800   0.9802017  )
       134           O   tau( 134) = (   0.0791811   1.2381051   0.9802015  )
       135           O   tau( 135) = (   0.5791809   0.3720800   0.9802017  )
       136           O   tau( 136) = (   0.5791810   1.2381051   0.9802015  )
       137           O   tau( 137) = (   0.1375592   0.1172526   1.0362571  )
       138           O   tau( 138) = (   0.1375593   0.9832778   1.0362572  )
       139           O   tau( 139) = (   0.6375593   0.1172526   1.0362571  )
       140           O   tau( 140) = (   0.6375593   0.9832778   1.0362572  )
       141           O   tau( 141) = (   0.3875592   0.5502654   1.0362570  )
       142           O   tau( 142) = (   0.3875593   1.4162905   1.0362573  )
       143           O   tau( 143) = (   0.8875592   0.5502655   1.0362570  )
       144           O   tau( 144) = (   0.8875594   1.4162904   1.0362573  )

   Crystallographic axes

     site n.     atom                  positions (cryst. coord.)
         1           Si  tau(   1) = (  0.2336019  0.0000000  0.0000000  )
         2           Si  tau(   2) = (  0.2336018  0.5000000  0.0000000  )
         3           Si  tau(   3) = (  0.7336019  0.0000000  0.0000000  )
         4           Si  tau(   4) = (  0.7336017  0.5000000  0.0000000  )
         5           Si  tau(   5) = (  0.4836018  0.2499999 -0.0000000  )
         6           Si  tau(   6) = (  0.4836018  0.7500001  0.0000000  )
         7           Si  tau(   7) = (  0.9836018  0.2499998 -0.0000000  )
         8           Si  tau(   8) = (  0.9836018  0.7500002  0.0000000  )
[...]
     atom   10 type  2   force =    -0.01637295   -0.00081764   -0.00957435
     atom   11 type  2   force =    -0.01637287   -0.00081758   -0.00957428
     atom   12 type  2   force =    -0.01637296   -0.00081764   -0.00957435
     atom   13 type  2   force =    -0.01637294   -0.00081761   -0.00957426
     atom   14 type  2   force =    -0.01637293   -0.00081763   -0.00957440
     atom   15 type  2   force =    -0.01637293   -0.00081761   -0.00957425
     atom   16 type  2   force =    -0.01637289   -0.00081765   -0.00957439
     atom   17 type  2   force =     0.00806912   -0.01399688    0.00967016
     atom   18 type  2   force =     0.00806899   -0.01399709    0.00967016
     atom   19 type  2   force =     0.00806910   -0.01399688    0.00967016
     atom   20 type  2   force =     0.00806910   -0.01399707    0.00967015
     atom   21 type  2   force =     0.00806918   -0.01399667    0.00967010
     atom   22 type  2   force =     0.00806899   -0.01399721    0.00967020
     atom   23 type  2   force =     0.00806915   -0.01399672    0.00967011
     atom   24 type  2   force =     0.00806897   -0.01399718    0.00967020
     atom   25 type  1   force =    -0.00048223    0.00075929   -0.00017240
     atom   26 type  1   force =    -0.00048174    0.00076121   -0.00017317
     atom   27 type  1   force =    -0.00048232    0.00075922   -0.00017234
     atom   28 type  1   force =    -0.00048225    0.00076113   -0.00017308
     atom   29 type  1   force =    -0.00048227    0.00075904   -0.00017283
     atom   30 type  1   force =    -0.00048192    0.00076127   -0.00017268
     atom   31 type  1   force =    -0.00048262    0.00075909   -0.00017283
     atom   32 type  1   force =    -0.00048188    0.00076115   -0.00017270
     atom   33 type  2   force =     0.01014185   -0.01328626   -0.00959772
     atom   34 type  2   force =     0.01014181   -0.01328657   -0.00959774
     atom   35 type  2   force =     0.01014183   -0.01328627   -0.00959772
     atom   36 type  2   force =     0.01014180   -0.01328657   -0.00959775
     atom   37 type  2   force =     0.01014177   -0.01328621   -0.00959772
     atom   38 type  2   force =     0.01014181   -0.01328664   -0.00959775
     atom   39 type  2   force =     0.01014192   -0.01328620   -0.00959770
     atom   40 type  2   force =     0.01014181   -0.01328664   -0.00959776
     atom   41 type  2   force =     0.01014185    0.01328657    0.00959767
     atom   42 type  2   force =     0.01014194    0.01328624    0.00959764
     atom   43 type  2   force =     0.01014186    0.01328656    0.00959767
     atom   44 type  2   force =     0.01014190    0.01328626    0.00959763
     atom   45 type  2   force =     0.01014189    0.01328651    0.00959767
     atom   46 type  2   force =     0.01014182    0.01328620    0.00959764
     atom   47 type  2   force =     0.01014188    0.01328651    0.00959768
     atom   48 type  2   force =     0.01014200    0.01328619    0.00959763
     atom   49 type  1   force =    -0.00048193   -0.00076125    0.00017373
     atom   50 type  1   force =    -0.00048236   -0.00075931    0.00017303
     atom   51 type  1   force =    -0.00048233   -0.00076113    0.00017357
     atom   52 type  1   force =    -0.00048249   -0.00075913    0.00017291
     atom   53 type  1   force =    -0.00048208   -0.00076116    0.00017325
     atom   54 type  1   force =    -0.00048238   -0.00075894    0.00017333
     atom   55 type  1   force =    -0.00048205   -0.00076099    0.00017335
     atom   56 type  1   force =    -0.00048280   -0.00075888    0.00017335
     atom   57 type  2   force =     0.00806899    0.01399698   -0.00967019
     atom   58 type  2   force =     0.00806911    0.01399688   -0.00967021
     atom   59 type  2   force =     0.00806909    0.01399696   -0.00967017
     atom   60 type  2   force =     0.00806913    0.01399688   -0.00967020
[...]
     atom  130 type  2   force =     0.00806912    0.01399688   -0.00967016
     atom  131 type  2   force =     0.00806909    0.01399696   -0.00967014
     atom  132 type  2   force =     0.00806910    0.01399688   -0.00967016
     atom  133 type  2   force =     0.00806899    0.01399721   -0.00967020
     atom  134 type  2   force =     0.00806918    0.01399667   -0.00967010
     atom  135 type  2   force =     0.00806897    0.01399718   -0.00967020
     atom  136 type  2   force =     0.00806915    0.01399672   -0.00967011
     atom  137 type  2   force =    -0.01637295    0.00081764    0.00957435
     atom  138 type  2   force =    -0.01637294    0.00081755    0.00957429
     atom  139 type  2   force =    -0.01637296    0.00081764    0.00957435
     atom  140 type  2   force =    -0.01637287    0.00081758    0.00957428
     atom  141 type  2   force =    -0.01637293    0.00081763    0.00957440
     atom  142 type  2   force =    -0.01637296    0.00081752    0.00957424
     atom  143 type  2   force =    -0.01637289    0.00081765    0.00957439
     atom  144 type  2   force =    -0.01637295    0.00081753    0.00957423
     The Hubbard contrib.    to forces
     atom    1 type  1   force =     0.00000000    0.00000000    0.00000000
     atom    2 type  1   force =     0.00000000    0.00000000    0.00000000
     atom    3 type  1   force =     0.00000000    0.00000000    0.00000000
     atom    4 type  1   force =     0.00000000    0.00000000    0.00000000
     atom    5 type  1   force =     0.00000000    0.00000000    0.00000000
     atom    6 type  1   force =     0.00000000    0.00000000    0.00000000
     atom    7 type  1   force =     0.00000000    0.00000000    0.00000000
     atom    8 type  1   force =     0.00000000    0.00000000    0.00000000
     atom    9 type  2   force =     0.00000000    0.00000000    0.00000000
     atom   10 type  2   force =     0.00000000    0.00000000    0.00000000
     atom   11 type  2   force =     0.00000000    0.00000000    0.00000000
     atom   12 type  2   force =     0.00000000    0.00000000    0.00000000
     atom   13 type  2   force =     0.00000000    0.00000000    0.00000000
     atom   14 type  2   force =     0.00000000    0.00000000    0.00000000
     atom   15 type  2   force =     0.00000000    0.00000000    0.00000000
     atom   16 type  2   force =     0.00000000    0.00000000    0.00000000
     atom   17 type  2   force =     0.00000000    0.00000000    0.00000000
     atom   18 type  2   force =     0.00000000    0.00000000    0.00000000
     atom   19 type  2   force =     0.00000000    0.00000000    0.00000000
     atom   20 type  2   force =     0.00000000    0.00000000    0.00000000
     atom   21 type  2   force =     0.00000000    0.00000000    0.00000000
     atom   22 type  2   force =     0.00000000    0.00000000    0.00000000
     atom   23 type  2   force =     0.00000000    0.00000000    0.00000000
     atom   24 type  2   force =     0.00000000    0.00000000    0.00000000
     atom   25 type  1   force =     0.00000000    0.00000000    0.00000000
     atom   26 type  1   force =     0.00000000    0.00000000    0.00000000
     atom   27 type  1   force =     0.00000000    0.00000000    0.00000000
     atom   28 type  1   force =     0.00000000    0.00000000    0.00000000
     atom   29 type  1   force =     0.00000000    0.00000000    0.00000000
     atom   30 type  1   force =     0.00000000    0.00000000    0.00000000
     atom   31 type  1   force =     0.00000000    0.00000000    0.00000000
     atom   32 type  1   force =     0.00000000    0.00000000    0.00000000
     atom   33 type  2   force =     0.00000000    0.00000000    0.00000000
     atom   34 type  2   force =     0.00000000    0.00000000    0.00000000
     atom   35 type  2   force =     0.00000000    0.00000000    0.00000000
     atom   36 type  2   force =     0.00000000    0.00000000    0.00000000
     atom   37 type  2   force =     0.00000000    0.00000000    0.00000000
     atom   38 type  2   force =     0.00000000    0.00000000    0.00000000
     atom   39 type  2   force =     0.00000000    0.00000000    0.00000000
     atom   40 type  2   force =     0.00000000    0.00000000    0.00000000
     atom   41 type  2   force =     0.00000000    0.00000000    0.00000000
     atom   42 type  2   force =     0.00000000    0.00000000    0.00000000
     atom   43 type  2   force =     0.00000000    0.00000000    0.00000000
     atom   44 type  2   force =     0.00000000    0.00000000    0.00000000
     atom   45 type  2   force =     0.00000000    0.00000000    0.00000000
     atom   46 type  2   force =     0.00000000    0.00000000    0.00000000
     atom   47 type  2   force =     0.00000000    0.00000000    0.00000000
     atom   48 type  2   force =     0.00000000    0.00000000    0.00000000
     atom   49 type  1   force =     0.00000000    0.00000000    0.00000000
     atom   50 type  1   force =     0.00000000    0.00000000    0.00000000
     atom   51 type  1   force =     0.00000000    0.00000000    0.00000000
     atom   52 type  1   force =     0.00000000    0.00000000    0.00000000
     atom   53 type  1   force =     0.00000000    0.00000000    0.00000000
     atom   54 type  1   force =     0.00000000    0.00000000    0.00000000
     atom   55 type  1   force =     0.00000000    0.00000000    0.00000000
     atom   56 type  1   force =     0.00000000    0.00000000    0.00000000
     atom   57 type  2   force =     0.00000000    0.00000000    0.00000000
     atom   58 type  2   force =     0.00000000    0.00000000    0.00000000
     atom   59 type  2   force =     0.00000000    0.00000000    0.00000000
     atom   60 type  2   force =     0.00000000    0.00000000    0.00000000
[...]
     atom  130 type  2   force =     0.00000000    0.00000000    0.00000000
     atom  131 type  2   force =     0.00000000    0.00000000    0.00000000
     atom  132 type  2   force =     0.00000000    0.00000000    0.00000000
     atom  133 type  2   force =     0.00000000    0.00000000    0.00000000
     atom  134 type  2   force =     0.00000000    0.00000000    0.00000000
     atom  135 type  2   force =     0.00000000    0.00000000    0.00000000
     atom  136 type  2   force =     0.00000000    0.00000000    0.00000000
     atom  137 type  2   force =     0.00000000    0.00000000    0.00000000
     atom  138 type  2   force =     0.00000000    0.00000000    0.00000000
     atom  139 type  2   force =     0.00000000    0.00000000    0.00000000
     atom  140 type  2   force =     0.00000000    0.00000000    0.00000000
     atom  141 type  2   force =     0.00000000    0.00000000    0.00000000
     atom  142 type  2   force =     0.00000000    0.00000000    0.00000000
     atom  143 type  2   force =     0.00000000    0.00000000    0.00000000
     atom  144 type  2   force =     0.00000000    0.00000000    0.00000000
     The SCF correction term to forces
     atom    1 type  1   force =    -0.00000006   -0.00000000    0.00000000
     atom    2 type  1   force =     0.00000000    0.00000000   -0.00000000
     atom    3 type  1   force =     0.00000004   -0.00000000    0.00000000
     atom    4 type  1   force =    -0.00000006    0.00000000   -0.00000000
     atom    5 type  1   force =    -0.00000002   -0.00000002   -0.00000002
     atom    6 type  1   force =    -0.00000002    0.00000002    0.00000002
     atom    7 type  1   force =    -0.00000000   -0.00000002    0.00000001
     atom    8 type  1   force =    -0.00000000    0.00000002   -0.00000001
     atom    9 type  2   force =    -0.00000020    0.00000001   -0.00000012
     atom   10 type  2   force =    -0.00000027    0.00000008   -0.00000019
     atom   11 type  2   force =    -0.00000024    0.00000004   -0.00000014
     atom   12 type  2   force =    -0.00000022    0.00000002   -0.00000012
     atom   13 type  2   force =    -0.00000029    0.00000005   -0.00000015
     atom   14 type  2   force =    -0.00000023    0.00000006   -0.00000011
     atom   15 type  2   force =    -0.00000019    0.00000002   -0.00000014
     atom   16 type  2   force =    -0.00000024    0.00000007   -0.00000011
     atom   17 type  2   force =     0.00000009   -0.00000017    0.00000012
     atom   18 type  2   force =     0.00000018   -0.00000014    0.00000013
     atom   19 type  2   force =     0.00000026   -0.00000016    0.00000018
     atom   20 type  2   force =     0.00000013   -0.00000012    0.00000015
     atom   21 type  2   force =     0.00000019   -0.00000021    0.00000017
     atom   22 type  2   force =     0.00000016   -0.00000014    0.00000014
     atom   23 type  2   force =     0.00000015   -0.00000016    0.00000014
     atom   24 type  2   force =     0.00000018   -0.00000022    0.00000018
     atom   25 type  1   force =    -0.00000001   -0.00000003   -0.00000004
     atom   26 type  1   force =     0.00000003   -0.00000001   -0.00000000
     atom   27 type  1   force =     0.00000004   -0.00000004    0.00000001
     atom   28 type  1   force =     0.00000002    0.00000001    0.00000000
     atom   29 type  1   force =     0.00000004   -0.00000008    0.00000001
     atom   30 type  1   force =     0.00000001   -0.00000001   -0.00000003
     atom   31 type  1   force =    -0.00000001   -0.00000003    0.00000001
     atom   32 type  1   force =     0.00000003   -0.00000007    0.00000002
     atom   33 type  2   force =     0.00000007   -0.00000026   -0.00000017
     atom   34 type  2   force =     0.00000007   -0.00000019   -0.00000010
     atom   35 type  2   force =     0.00000007   -0.00000021   -0.00000014
     atom   36 type  2   force =     0.00000008   -0.00000021   -0.00000017
     atom   37 type  2   force =     0.00000004   -0.00000030   -0.00000015
     atom   38 type  2   force =     0.00000005   -0.00000026   -0.00000017
     atom   39 type  2   force =     0.00000006   -0.00000023   -0.00000010
     atom   40 type  2   force =     0.00000013   -0.00000027   -0.00000013
     atom   41 type  2   force =     0.00000007    0.00000018    0.00000018
     atom   42 type  2   force =     0.00000004    0.00000022    0.00000014
     atom   43 type  2   force =     0.00000010    0.00000020    0.00000012
     atom   44 type  2   force =     0.00000007    0.00000021    0.00000014
     atom   45 type  2   force =     0.00000002    0.00000024    0.00000010
     atom   46 type  2   force =     0.00000006    0.00000027    0.00000015
     atom   47 type  2   force =     0.00000011    0.00000023    0.00000015
     atom   48 type  2   force =     0.00000007    0.00000023    0.00000011
     atom   49 type  1   force =     0.00000001   -0.00000010   -0.00000000
     atom   50 type  1   force =    -0.00000000    0.00000003   -0.00000003
     atom   51 type  1   force =     0.00000003    0.00000001    0.00000003
     atom   52 type  1   force =     0.00000001    0.00000000   -0.00000002
     atom   53 type  1   force =    -0.00000004    0.00000001    0.00000001
     atom   54 type  1   force =    -0.00000001    0.00000005    0.00000004
     atom   55 type  1   force =     0.00000003    0.00000006   -0.00000000
     atom   56 type  1   force =    -0.00000001    0.00000002   -0.00000003
     atom   57 type  2   force =     0.00000015    0.00000006   -0.00000014
     atom   58 type  2   force =     0.00000012    0.00000017   -0.00000016
     atom   59 type  2   force =     0.00000019    0.00000014   -0.00000014
     atom   60 type  2   force =     0.00000019    0.00000015   -0.00000013
[...]
     atom  130 type  2   force =     0.00000009    0.00000017   -0.00000012
     atom  131 type  2   force =     0.00000013    0.00000012   -0.00000015
     atom  132 type  2   force =     0.00000026    0.00000016   -0.00000018
     atom  133 type  2   force =     0.00000016    0.00000014   -0.00000014
     atom  134 type  2   force =     0.00000019    0.00000021   -0.00000017
     atom  135 type  2   force =     0.00000018    0.00000022   -0.00000018
     atom  136 type  2   force =     0.00000015    0.00000016   -0.00000014
     atom  137 type  2   force =    -0.00000027   -0.00000008    0.00000019
     atom  138 type  2   force =    -0.00000020   -0.00000001    0.00000012
     atom  139 type  2   force =    -0.00000022   -0.00000002    0.00000012
     atom  140 type  2   force =    -0.00000024   -0.00000004    0.00000014
     atom  141 type  2   force =    -0.00000023   -0.00000006    0.00000011
     atom  142 type  2   force =    -0.00000029   -0.00000005    0.00000015
     atom  143 type  2   force =    -0.00000024   -0.00000007    0.00000011
     atom  144 type  2   force =    -0.00000019   -0.00000002    0.00000014

     Total force =     0.000169     Total SCF correction =     0.000003

     Writing output data file ./SiO2_OR_144_us.save/

     General routines

     Parallel routines

   This run was terminated on:  20: 6: 9  28Jun2021

   JOB DONE.