     Program PWSCF v.6.6 starts on 27Jun2021 at  6:16:14

     K-points division:     npool     =       4
     R & G space division:  proc/nbgrp/npool/nimage =      12
     wavefunctions fft division:  Y-proc x Z-proc =       6      2
     wavefunctions fft division:  task group distribution
                                  #TG    x Z-proc =       6      2
     Fft bands division:     nmany     =       1
     Reading input from ../inputs/input_quarzo_72
Warning: card &CELL ignored
Warning: card / ignored

     Current dimensions of program PWSCF are:
     Max number of different atomic species (ntypx) = 10
     Max number of k-points (npk) =  40000
     Max angular momentum in pseudopotentials (lmaxx) =  3

     Subspace diagonalization in iterative solution of the eigenvalue problem:
     one sub-group per band group will be used

     Found symmetry operation: I + (  0.5000  0.0000  0.0000)
     This is a supercell, fractional translations are disabled

     Title:
     'srtio_bulk'

     bravais-lattice index     =            8
     lattice parameter (alat)  =      18.5722  a.u.
     unit-cell volume          =    6102.1621 (a.u.)^3
     number of atoms/cell      =           72
     number of atomic types    =            2
     number of electrons       =       384.00
     number of Kohn-Sham states=          192
     kinetic-energy cutoff     =      40.0000  Ry
     charge density cutoff     =     250.0000  Ry
     convergence threshold     =      1.0E-10
     mixing beta               =       0.7000
     number of iterations used =            8  plain     mixing
     Exchange-correlation= PBESOL
                           (   1   4  10   8   0   0   0)

     celldm(1)=  18.572236  celldm(2)=   0.866025  celldm(3)=   1.099919
     celldm(4)=   0.000000  celldm(5)=   0.000000  celldm(6)=   0.000000

     crystal axes: (cart. coord. in units of alat)
               a(1) = (   1.000000   0.000000   0.000000 )
               a(2) = (   0.000000   0.866025   0.000000 )
               a(3) = (   0.000000   0.000000   1.099919 )

     reciprocal axes: (cart. coord. in units 2 pi/alat)
               b(1) = (  1.000000  0.000000  0.000000 )
               b(2) = (  0.000000  1.154701  0.000000 )
               b(3) = (  0.000000  0.000000  0.909158 )

     PseudoPot. # 1 for Si read from file:
     ./Si.pbesol-n-rrkjus_psl.0.1.UPF
     MD5 check sum: 84986bd6be9e79932892c86d18f23292
     Pseudo is Ultrasoft + core correction, Zval =  4.0
     Generated using "atomic" code by A. Dal Corso v.5.0.2 svn rev. 9415
     Using radial grid of 1141 points,  4 beta functions with:
                l(1) =   0
                l(2) =   0
                l(3) =   1
                l(4) =   1
     Q(r) pseudized with 0 coefficients

     PseudoPot. # 2 for O  read from file:
     ./O.pbesol-n-rrkjus_psl.0.1.UPF
     MD5 check sum: 860b55360c6eac1e4db712ce01d51bd8
     Pseudo is Ultrasoft + core correction, Zval =  6.0
     Generated using "atomic" code by A. Dal Corso v.5.0.2 svn rev. 9415
     Using radial grid of 1095 points,  4 beta functions with:
                l(1) =   0
                l(2) =   0
                l(3) =   1
                l(4) =   1
     Q(r) pseudized with 0 coefficients

     atomic species   valence    mass     pseudopotential
        Si             4.00    47.86700     Si( 1.00)
        O              6.00    15.99940     O ( 1.00)

      2 Sym. Ops. (no inversion) found

                                    s                        frac. trans.

      isym =  1     identity

 cryst.   s( 1) = (     1          0          0      )
                  (     0          1          0      )
                  (     0          0          1      )

 cart.    s( 1) = (  1.0000000  0.0000000  0.0000000 )
                  (  0.0000000  1.0000000  0.0000000 )
                  (  0.0000000  0.0000000  1.0000000 )

      isym =  2     180 deg rotation - cart. axis [1,0,0]

 cryst.   s( 2) = (     1          0          0      )
                  (     0         -1          0      )
                  (     0          0         -1      )

 cart.    s( 2) = (  1.0000000  0.0000000  0.0000000 )
                  (  0.0000000 -1.0000000  0.0000000 )
                  (  0.0000000  0.0000000 -1.0000000 )

     point group C_2  (2)
     there are  2 classes
     the character table:

       E     C2
A      1.00  1.00
B      1.00 -1.00

     the symmetry operations in each class and the name of the first element:

     E        1
          identity
     C2       2
          180 deg rotation - cart. axis [1,0,0]

   Cartesian axes

     site n.     atom                  positions (alat units)
         1           Si  tau(   1) = (   0.2355748   0.0000000   0.0000000  )
         2           Si  tau(   2) = (   0.7355740   0.0000000   0.0000000  )
         3           Si  tau(   3) = (   0.4837426   0.4330127   0.0000000  )
         4           Si  tau(   4) = (   0.9837428   0.4330127   0.0000000  )
         5           O   tau(   5) = (   0.1399330   0.7468191   0.0592783  )
         6           O   tau(   6) = (   0.6399333   0.7468194   0.0592781  )
         7           O   tau(   7) = (   0.3899585   0.3155363   0.0664835  )
         8           O   tau(   8) = (   0.8899585   0.3155364   0.0664834  )
         9           O   tau(   9) = (   0.3295175   0.0595912   0.1212122  )
        10           O   tau(  10) = (   0.8295178   0.0595915   0.1212125  )
        11           O   tau(  11) = (   0.0780999   0.4951203   0.1195990  )
        12           O   tau(  12) = (   0.5781001   0.4951206   0.1195992  )
        13           Si  tau(  13) = (   0.3830223   0.2012812   0.1849168  )
        14           Si  tau(  14) = (   0.8830220   0.2012810   0.1849170  )
        15           Si  tau(  15) = (   0.1325113   0.6368575   0.1814030  )
        16           Si  tau(  16) = (   0.6325105   0.6368573   0.1814029  )
        17           O   tau(  17) = (   0.0310655   0.1757238   0.2508380  )
        18           O   tau(  18) = (   0.5310658   0.1757238   0.2508382  )
        19           O   tau(  19) = (   0.2812336   0.6139772   0.2463051  )
        20           O   tau(  20) = (   0.7812344   0.6139772   0.2463055  )
        21           O   tau(  21) = (   0.0310649   0.6903017   0.2991218  )
        22           O   tau(  22) = (   0.5310652   0.6903017   0.2991216  )
        23           O   tau(  23) = (   0.2812330   0.2520483   0.3036548  )
        24           O   tau(  24) = (   0.7812338   0.2520482   0.3036543  )
        25           Si  tau(  25) = (   0.3830225   0.6647441   0.3650416  )
        26           Si  tau(  26) = (   0.8830221   0.6647443   0.3650414  )
        27           Si  tau(  27) = (   0.1325115   0.2291678   0.3685554  )
        28           Si  tau(  28) = (   0.6325107   0.2291680   0.3685555  )
        29           O   tau(  29) = (   0.3295173   0.8064345   0.4287473  )
        30           O   tau(  30) = (   0.8295177   0.8064342   0.4287470  )
        31           O   tau(  31) = (   0.0780997   0.3709054   0.4303606  )
        32           O   tau(  32) = (   0.5780999   0.3709051   0.4303604  )
        33           O   tau(  33) = (   0.1399331   0.1192060   0.4906812  )
        34           O   tau(  34) = (   0.6399334   0.1192057   0.4906814  )
        35           O   tau(  35) = (   0.3899586   0.5504888   0.4834761  )
        36           O   tau(  36) = (   0.8899586   0.5504887   0.4834762  )
        37           Si  tau(  37) = (   0.2355748   0.0000000   0.5499593  )
        38           Si  tau(  38) = (   0.7355740   0.0000000   0.5499593  )
        39           Si  tau(  39) = (   0.4837426   0.4330127   0.5499593  )
        40           Si  tau(  40) = (   0.9837428   0.4330127   0.5499593  )
        41           O   tau(  41) = (   0.1399331   0.7468194   0.6092374  )
        42           O   tau(  42) = (   0.6399334   0.7468197   0.6092372  )
        43           O   tau(  43) = (   0.3899586   0.3155366   0.6164425  )
        44           O   tau(  44) = (   0.8899586   0.3155367   0.6164424  )
        45           O   tau(  45) = (   0.3295173   0.0595909   0.6711713  )
        46           O   tau(  46) = (   0.8295177   0.0595912   0.6711716  )
        47           O   tau(  47) = (   0.0780997   0.4951200   0.6695580  )
        48           O   tau(  48) = (   0.5780999   0.4951203   0.6695582  )
        49           Si  tau(  49) = (   0.3830225   0.2012813   0.7348770  )
        50           Si  tau(  50) = (   0.8830221   0.2012811   0.7348772  )
        51           Si  tau(  51) = (   0.1325115   0.6368576   0.7313632  )
        52           Si  tau(  52) = (   0.6325107   0.6368574   0.7313631  )
        53           O   tau(  53) = (   0.0310649   0.1757237   0.8007968  )
        54           O   tau(  54) = (   0.5310652   0.1757237   0.8007970  )
        55           O   tau(  55) = (   0.2812330   0.6139771   0.7962638  )
        56           O   tau(  56) = (   0.7812338   0.6139772   0.7962643  )
        57           O   tau(  57) = (   0.0310655   0.6903016   0.8490806  )
        58           O   tau(  58) = (   0.5310658   0.6903016   0.8490804  )
        59           O   tau(  59) = (   0.2812336   0.2520482   0.8536135  )
        60           O   tau(  60) = (   0.7812344   0.2520482   0.8536131  )
        61           Si  tau(  61) = (   0.3830223   0.6647442   0.9150018  )
        62           Si  tau(  62) = (   0.8830220   0.6647444   0.9150016  )
        63           Si  tau(  63) = (   0.1325113   0.2291679   0.9185156  )
        64           Si  tau(  64) = (   0.6325105   0.2291681   0.9185157  )
        65           O   tau(  65) = (   0.3295175   0.8064342   0.9787064  )
        66           O   tau(  66) = (   0.8295178   0.8064339   0.9787061  )
        67           O   tau(  67) = (   0.0780999   0.3709051   0.9803196  )
        68           O   tau(  68) = (   0.5781001   0.3709048   0.9803194  )
        69           O   tau(  69) = (   0.1399330   0.1192063   1.0406403  )
        70           O   tau(  70) = (   0.6399333   0.1192060   1.0406405  )
        71           O   tau(  71) = (   0.3899585   0.5504891   1.0334351  )
        72           O   tau(  72) = (   0.8899585   0.5504890   1.0334352  )

   Crystallographic axes

     site n.     atom                  positions (cryst. coord.)
         1           Si  tau(   1) = (  0.2355748  0.0000000  0.0000000  )
         2           Si  tau(   2) = (  0.7355740  0.0000000  0.0000000  )
         3           Si  tau(   3) = (  0.4837426  0.5000000  0.0000000  )
         4           Si  tau(   4) = (  0.9837428  0.5000000  0.0000000  )
         5           O   tau(   5) = (  0.1399330  0.8623525  0.0538934  )
         6           O   tau(   6) = (  0.6399333  0.8623528  0.0538932  )
         7           O   tau(   7) = (  0.3899585  0.3643499  0.0604440  )
         8           O   tau(   8) = (  0.8899585  0.3643500  0.0604439  )
         9           O   tau(   9) = (  0.3295175  0.0688100  0.1102011  )
        10           O   tau(  10) = (  0.8295178  0.0688103  0.1102013  )
        11           O   tau(  11) = (  0.0780999  0.5717157  0.1087344  )
[...]
     The core correction contribution to forces
     atom    1 type  1   force =    -0.00109120    0.00000000   -0.00000000
     atom    2 type  1   force =    -0.00109566    0.00000000   -0.00000000
     atom    3 type  1   force =     0.00320883    0.00000000   -0.00000000
     atom    4 type  1   force =     0.00320997    0.00000000   -0.00000000
     atom    5 type  2   force =    -0.01219324   -0.00242485   -0.01533992
     atom    6 type  2   force =    -0.01219340   -0.00242424   -0.01534022
     atom    7 type  2   force =    -0.01242381   -0.00170425   -0.00664032
     atom    8 type  2   force =    -0.01242346   -0.00170437   -0.00664037
     atom    9 type  2   force =     0.00329310   -0.01448710    0.01241378
     atom   10 type  2   force =     0.00329312   -0.01448765    0.01241473
     atom   11 type  2   force =     0.00492739   -0.01010623    0.01161445
     atom   12 type  2   force =     0.00492739   -0.01010671    0.01161549
     atom   13 type  1   force =    -0.00043825   -0.00010596    0.00187329
     atom   14 type  1   force =    -0.00044018   -0.00010711    0.00187535
     atom   15 type  1   force =    -0.00046548    0.00012243   -0.00010808
     atom   16 type  1   force =    -0.00047017    0.00012079   -0.00010819
     atom   17 type  2   force =     0.00761677   -0.01176047   -0.00697298
     atom   18 type  2   force =     0.00761746   -0.01176058   -0.00697279
     atom   19 type  2   force =     0.00703446   -0.00801061   -0.00985039
     atom   20 type  2   force =     0.00703610   -0.00801033   -0.00984893
     atom   21 type  2   force =     0.00761607    0.01176012    0.00697487
     atom   22 type  2   force =     0.00761677    0.01176025    0.00697467
     atom   23 type  2   force =     0.00703371    0.00801076    0.00985221
     atom   24 type  2   force =     0.00703536    0.00801048    0.00985075
     atom   25 type  1   force =    -0.00043696    0.00010549   -0.00187867
     atom   26 type  1   force =    -0.00043886    0.00010668   -0.00188074
     atom   27 type  1   force =    -0.00046383   -0.00012357    0.00010258
     atom   28 type  1   force =    -0.00046855   -0.00012193    0.00010272
     atom   29 type  2   force =     0.00329299    0.01448659   -0.01241263
     atom   30 type  2   force =     0.00329300    0.01448713   -0.01241358
     atom   31 type  2   force =     0.00492783    0.01010557   -0.01161281
     atom   32 type  2   force =     0.00492784    0.01010605   -0.01161385
     atom   33 type  2   force =    -0.01219344    0.00242469    0.01534033
     atom   34 type  2   force =    -0.01219358    0.00242408    0.01534064
     atom   35 type  2   force =    -0.01242413    0.00170500    0.00664092
     atom   36 type  2   force =    -0.01242380    0.00170514    0.00664097
     atom   37 type  1   force =    -0.00109152    0.00000000   -0.00000000
     atom   38 type  1   force =    -0.00109600    0.00000000   -0.00000000
     atom   39 type  1   force =     0.00320872    0.00000000   -0.00000000
     atom   40 type  1   force =     0.00320981    0.00000000   -0.00000000
     atom   41 type  2   force =    -0.01219345   -0.00242459   -0.01534032
     atom   42 type  2   force =    -0.01219359   -0.00242397   -0.01534063
     atom   43 type  2   force =    -0.01242413   -0.00170501   -0.00664092
     atom   44 type  2   force =    -0.01242379   -0.00170514   -0.00664097
     atom   45 type  2   force =     0.00329299   -0.01448659    0.01241263
     atom   46 type  2   force =     0.00329300   -0.01448713    0.01241358
     atom   47 type  2   force =     0.00492783   -0.01010557    0.01161281
     atom   48 type  2   force =     0.00492784   -0.01010605    0.01161385
     atom   49 type  1   force =    -0.00043696   -0.00010549    0.00187867
     atom   50 type  1   force =    -0.00043886   -0.00010668    0.00188074
     atom   51 type  1   force =    -0.00046383    0.00012357   -0.00010258
     atom   52 type  1   force =    -0.00046855    0.00012193   -0.00010272
     atom   53 type  2   force =     0.00761607   -0.01176004   -0.00697488
     atom   54 type  2   force =     0.00761676   -0.01176018   -0.00697467
     atom   55 type  2   force =     0.00703371   -0.00801076   -0.00985221
     atom   56 type  2   force =     0.00703536   -0.00801048   -0.00985075
     atom   57 type  2   force =     0.00761677    0.01176054    0.00697298
     atom   58 type  2   force =     0.00761746    0.01176065    0.00697279
     atom   59 type  2   force =     0.00703446    0.00801061    0.00985039
     atom   60 type  2   force =     0.00703610    0.00801033    0.00984893
     atom   61 type  1   force =    -0.00043825    0.00010596   -0.00187329
     atom   62 type  1   force =    -0.00044018    0.00010711   -0.00187535
     atom   63 type  1   force =    -0.00046548   -0.00012243    0.00010808
     atom   64 type  1   force =    -0.00047017   -0.00012079    0.00010819
     atom   65 type  2   force =     0.00329310    0.01448710   -0.01241378
     atom   66 type  2   force =     0.00329312    0.01448765   -0.01241473
     atom   67 type  2   force =     0.00492739    0.01010623   -0.01161445
     atom   68 type  2   force =     0.00492739    0.01010671   -0.01161549
     atom   69 type  2   force =    -0.01219323    0.00242495    0.01533993
     atom   70 type  2   force =    -0.01219339    0.00242434    0.01534024
     atom   71 type  2   force =    -0.01242381    0.00170425    0.00664033
     atom   72 type  2   force =    -0.01242347    0.00170437    0.00664037
     The Hubbard contrib.    to forces
     atom    1 type  1   force =     0.00000000    0.00000000    0.00000000
     atom    2 type  1   force =     0.00000000    0.00000000    0.00000000
     atom    3 type  1   force =     0.00000000    0.00000000    0.00000000
     atom    4 type  1   force =     0.00000000    0.00000000    0.00000000
     atom    5 type  2   force =     0.00000000    0.00000000    0.00000000
     atom    6 type  2   force =     0.00000000    0.00000000    0.00000000
     atom    7 type  2   force =     0.00000000    0.00000000    0.00000000
     atom    8 type  2   force =     0.00000000    0.00000000    0.00000000
     atom    9 type  2   force =     0.00000000    0.00000000    0.00000000
     atom   10 type  2   force =     0.00000000    0.00000000    0.00000000
     atom   11 type  2   force =     0.00000000    0.00000000    0.00000000
     atom   12 type  2   force =     0.00000000    0.00000000    0.00000000
     atom   13 type  1   force =     0.00000000    0.00000000    0.00000000
     atom   14 type  1   force =     0.00000000    0.00000000    0.00000000
     atom   15 type  1   force =     0.00000000    0.00000000    0.00000000
     atom   16 type  1   force =     0.00000000    0.00000000    0.00000000
     atom   17 type  2   force =     0.00000000    0.00000000    0.00000000
     atom   18 type  2   force =     0.00000000    0.00000000    0.00000000
     atom   19 type  2   force =     0.00000000    0.00000000    0.00000000
     atom   20 type  2   force =     0.00000000    0.00000000    0.00000000
     atom   21 type  2   force =     0.00000000    0.00000000    0.00000000
     atom   22 type  2   force =     0.00000000    0.00000000    0.00000000
     atom   23 type  2   force =     0.00000000    0.00000000    0.00000000
     atom   24 type  2   force =     0.00000000    0.00000000    0.00000000
     atom   25 type  1   force =     0.00000000    0.00000000    0.00000000
     atom   26 type  1   force =     0.00000000    0.00000000    0.00000000
     atom   27 type  1   force =     0.00000000    0.00000000    0.00000000
     atom   28 type  1   force =     0.00000000    0.00000000    0.00000000
     atom   29 type  2   force =     0.00000000    0.00000000    0.00000000
     atom   30 type  2   force =     0.00000000    0.00000000    0.00000000
     atom   31 type  2   force =     0.00000000    0.00000000    0.00000000
     atom   32 type  2   force =     0.00000000    0.00000000    0.00000000
     atom   33 type  2   force =     0.00000000    0.00000000    0.00000000
     atom   34 type  2   force =     0.00000000    0.00000000    0.00000000
     atom   35 type  2   force =     0.00000000    0.00000000    0.00000000
     atom   36 type  2   force =     0.00000000    0.00000000    0.00000000
     atom   37 type  1   force =     0.00000000    0.00000000    0.00000000
     atom   38 type  1   force =     0.00000000    0.00000000    0.00000000
     atom   39 type  1   force =     0.00000000    0.00000000    0.00000000
     atom   40 type  1   force =     0.00000000    0.00000000    0.00000000
     atom   41 type  2   force =     0.00000000    0.00000000    0.00000000
     atom   42 type  2   force =     0.00000000    0.00000000    0.00000000
     atom   43 type  2   force =     0.00000000    0.00000000    0.00000000
     atom   44 type  2   force =     0.00000000    0.00000000    0.00000000
     atom   45 type  2   force =     0.00000000    0.00000000    0.00000000
     atom   46 type  2   force =     0.00000000    0.00000000    0.00000000
     atom   47 type  2   force =     0.00000000    0.00000000    0.00000000
     atom   48 type  2   force =     0.00000000    0.00000000    0.00000000
     atom   49 type  1   force =     0.00000000    0.00000000    0.00000000
     atom   50 type  1   force =     0.00000000    0.00000000    0.00000000
     atom   51 type  1   force =     0.00000000    0.00000000    0.00000000
     atom   52 type  1   force =     0.00000000    0.00000000    0.00000000
     atom   53 type  2   force =     0.00000000    0.00000000    0.00000000
     atom   54 type  2   force =     0.00000000    0.00000000    0.00000000
     atom   55 type  2   force =     0.00000000    0.00000000    0.00000000
     atom   56 type  2   force =     0.00000000    0.00000000    0.00000000
     atom   57 type  2   force =     0.00000000    0.00000000    0.00000000
     atom   58 type  2   force =     0.00000000    0.00000000    0.00000000
     atom   59 type  2   force =     0.00000000    0.00000000    0.00000000
     atom   60 type  2   force =     0.00000000    0.00000000    0.00000000
     atom   61 type  1   force =     0.00000000    0.00000000    0.00000000
     atom   62 type  1   force =     0.00000000    0.00000000    0.00000000
     atom   63 type  1   force =     0.00000000    0.00000000    0.00000000
     atom   64 type  1   force =     0.00000000    0.00000000    0.00000000
     atom   65 type  2   force =     0.00000000    0.00000000    0.00000000
     atom   66 type  2   force =     0.00000000    0.00000000    0.00000000
     atom   67 type  2   force =     0.00000000    0.00000000    0.00000000
     atom   68 type  2   force =     0.00000000    0.00000000    0.00000000
     atom   69 type  2   force =     0.00000000    0.00000000    0.00000000
     atom   70 type  2   force =     0.00000000    0.00000000    0.00000000
     atom   71 type  2   force =     0.00000000    0.00000000    0.00000000
     atom   72 type  2   force =     0.00000000    0.00000000    0.00000000
     The SCF correction term to forces
     atom    1 type  1   force =    -0.00000008   -0.00000000   -0.00000000
     atom    2 type  1   force =    -0.00000012   -0.00000000   -0.00000000
     atom    3 type  1   force =    -0.00000011   -0.00000000    0.00000000
     atom    4 type  1   force =    -0.00000007   -0.00000000    0.00000000
     atom    5 type  2   force =    -0.00000114    0.00000009   -0.00000064
     atom    6 type  2   force =    -0.00000115    0.00000015   -0.00000068
     atom    7 type  2   force =    -0.00000107    0.00000021   -0.00000052
     atom    8 type  2   force =    -0.00000111    0.00000015   -0.00000044
     atom    9 type  2   force =     0.00000078   -0.00000087    0.00000065
     atom   10 type  2   force =     0.00000071   -0.00000088    0.00000064
     atom   11 type  2   force =     0.00000073   -0.00000088    0.00000060
     atom   12 type  2   force =     0.00000067   -0.00000089    0.00000055
     atom   13 type  1   force =     0.00000005   -0.00000009   -0.00000002
     atom   14 type  1   force =     0.00000004   -0.00000008    0.00000000
     atom   15 type  1   force =     0.00000003   -0.00000008   -0.00000002
     atom   16 type  1   force =     0.00000003   -0.00000005   -0.00000002
     atom   17 type  2   force =     0.00000031   -0.00000112   -0.00000054
     atom   18 type  2   force =     0.00000035   -0.00000113   -0.00000056
     atom   19 type  2   force =     0.00000043   -0.00000104   -0.00000051
     atom   20 type  2   force =     0.00000042   -0.00000104   -0.00000052
     atom   21 type  2   force =     0.00000033    0.00000115    0.00000054
     atom   22 type  2   force =     0.00000033    0.00000113    0.00000054
     atom   23 type  2   force =     0.00000040    0.00000103    0.00000051
     atom   24 type  2   force =     0.00000044    0.00000103    0.00000047
     atom   25 type  1   force =     0.00000005    0.00000008   -0.00000001
     atom   26 type  1   force =     0.00000005    0.00000008    0.00000000
     atom   27 type  1   force =     0.00000003    0.00000006    0.00000002
     atom   28 type  1   force =     0.00000003    0.00000006    0.00000001
     atom   29 type  2   force =     0.00000072    0.00000090   -0.00000059
     atom   30 type  2   force =     0.00000072    0.00000094   -0.00000060
     atom   31 type  2   force =     0.00000069    0.00000090   -0.00000058
     atom   32 type  2   force =     0.00000071    0.00000091   -0.00000058
     atom   33 type  2   force =    -0.00000112   -0.00000014    0.00000066
     atom   34 type  2   force =    -0.00000113   -0.00000017    0.00000070
     atom   35 type  2   force =    -0.00000108   -0.00000018    0.00000048
     atom   36 type  2   force =    -0.00000108   -0.00000022    0.00000052
     atom   37 type  1   force =    -0.00000011   -0.00000000   -0.00000000
     atom   38 type  1   force =    -0.00000010   -0.00000000   -0.00000000
     atom   39 type  1   force =    -0.00000008   -0.00000000    0.00000000
     atom   40 type  1   force =    -0.00000010   -0.00000000    0.00000000
     atom   41 type  2   force =    -0.00000112    0.00000014   -0.00000066
     atom   42 type  2   force =    -0.00000113    0.00000017   -0.00000070
     atom   43 type  2   force =    -0.00000108    0.00000018   -0.00000048
     atom   44 type  2   force =    -0.00000108    0.00000022   -0.00000052
     atom   45 type  2   force =     0.00000072   -0.00000090    0.00000059
     atom   46 type  2   force =     0.00000072   -0.00000094    0.00000060
     atom   47 type  2   force =     0.00000069   -0.00000090    0.00000058
     atom   48 type  2   force =     0.00000071   -0.00000091    0.00000058
     atom   49 type  1   force =     0.00000005   -0.00000008    0.00000001
     atom   50 type  1   force =     0.00000005   -0.00000008   -0.00000000
     atom   51 type  1   force =     0.00000003   -0.00000006   -0.00000002
     atom   52 type  1   force =     0.00000003   -0.00000006   -0.00000001
     atom   53 type  2   force =     0.00000033   -0.00000115   -0.00000054
     atom   54 type  2   force =     0.00000033   -0.00000113   -0.00000054
     atom   55 type  2   force =     0.00000040   -0.00000103   -0.00000051
     atom   56 type  2   force =     0.00000044   -0.00000103   -0.00000047
     atom   57 type  2   force =     0.00000031    0.00000112    0.00000054
     atom   58 type  2   force =     0.00000035    0.00000113    0.00000056
     atom   59 type  2   force =     0.00000043    0.00000104    0.00000051
     atom   60 type  2   force =     0.00000042    0.00000104    0.00000052
     atom   61 type  1   force =     0.00000005    0.00000009    0.00000002
     atom   62 type  1   force =     0.00000004    0.00000008   -0.00000000
     atom   63 type  1   force =     0.00000003    0.00000008    0.00000002
     atom   64 type  1   force =     0.00000003    0.00000005    0.00000002
     atom   65 type  2   force =     0.00000078    0.00000087   -0.00000065
     atom   66 type  2   force =     0.00000071    0.00000088   -0.00000064
     atom   67 type  2   force =     0.00000073    0.00000088   -0.00000060
     atom   68 type  2   force =     0.00000067    0.00000089   -0.00000055
     atom   69 type  2   force =    -0.00000114   -0.00000009    0.00000064
     atom   70 type  2   force =    -0.00000115   -0.00000015    0.00000068
     atom   71 type  2   force =    -0.00000107   -0.00000021    0.00000052
     atom   72 type  2   force =    -0.00000111   -0.00000015    0.00000044

     Total force =     0.000211     Total SCF correction =     0.000009

     Writing output data file ./SiO2_OR_72_2.save/

     General routines

     Parallel routines

   This run was terminated on:   6:16:29  27Jun2021

   JOB DONE.