     Program PWSCF v.6.6 starts on 30Jun2021 at 21:59:38

     K-points division:     npool     =       4
     R & G space division:  proc/nbgrp/npool/nimage =       6
     Fft bands division:     nmany     =       1
     Reading input from ../inputs/input_quarzo_36
Warning: card &CELL ignored
Warning: card / ignored

     Current dimensions of program PWSCF are:
     Max number of different atomic species (ntypx) = 10
     Max number of k-points (npk) =  40000
     Max angular momentum in pseudopotentials (lmaxx) =  3

     Subspace diagonalization in iterative solution of the eigenvalue problem:
     one sub-group per band group will be used

     Found symmetry operation: I + (  0.5000  0.0000  0.0000)
     This is a supercell, fractional translations are disabled

     Title:
     'srtio_bulk'

     bravais-lattice index     =            8
     lattice parameter (alat)  =      18.5722  a.u.
     unit-cell volume          =    3051.0810 (a.u.)^3
     number of atoms/cell      =           36
     number of atomic types    =            2
     number of electrons       =       192.00
     number of Kohn-Sham states=           96
     kinetic-energy cutoff     =      40.0000  Ry
     charge density cutoff     =     250.0000  Ry
     convergence threshold     =      1.0E-10
     mixing beta               =       0.7000
     number of iterations used =            8  plain     mixing
     Exchange-correlation= PBESOL
                           (   1   4  10   8   0   0   0)

     celldm(1)=  18.572236  celldm(2)=   0.866025  celldm(3)=   0.549959
     celldm(4)=   0.000000  celldm(5)=   0.000000  celldm(6)=   0.000000

     crystal axes: (cart. coord. in units of alat)
               a(1) = (   1.000000   0.000000   0.000000 )
               a(2) = (   0.000000   0.866025   0.000000 )
               a(3) = (   0.000000   0.000000   0.549959 )

     reciprocal axes: (cart. coord. in units 2 pi/alat)
               b(1) = (  1.000000  0.000000  0.000000 )
               b(2) = (  0.000000  1.154701  0.000000 )
               b(3) = (  0.000000  0.000000  1.818316 )

     PseudoPot. # 1 for Si read from file:
     ./../pseudo/Si.pbesol-n-rrkjus_psl.0.1.UPF
     MD5 check sum: 84986bd6be9e79932892c86d18f23292
     Pseudo is Ultrasoft + core correction, Zval =  4.0
     Generated using "atomic" code by A. Dal Corso v.5.0.2 svn rev. 9415
     Using radial grid of 1141 points,  4 beta functions with:
                l(1) =   0
                l(2) =   0
                l(3) =   1
                l(4) =   1
     Q(r) pseudized with 0 coefficients

     PseudoPot. # 2 for O  read from file:
     ./../pseudo/O.pbesol-n-rrkjus_psl.0.1.UPF
     MD5 check sum: 860b55360c6eac1e4db712ce01d51bd8
     Pseudo is Ultrasoft + core correction, Zval =  6.0
     Generated using "atomic" code by A. Dal Corso v.5.0.2 svn rev. 9415
     Using radial grid of 1095 points,  4 beta functions with:
                l(1) =   0
                l(2) =   0
                l(3) =   1
                l(4) =   1
     Q(r) pseudized with 0 coefficients

     atomic species   valence    mass     pseudopotential
        Si             4.00    47.86700     Si( 1.00)
        O              6.00    15.99940     O ( 1.00)

      2 Sym. Ops. (no inversion) found

                                    s                        frac. trans.

      isym =  1     identity

 cryst.   s( 1) = (     1          0          0      )
                  (     0          1          0      )
                  (     0          0          1      )

 cart.    s( 1) = (  1.0000000  0.0000000  0.0000000 )
                  (  0.0000000  1.0000000  0.0000000 )
                  (  0.0000000  0.0000000  1.0000000 )

      isym =  2     180 deg rotation - cart. axis [1,0,0]

 cryst.   s( 2) = (     1          0          0      )
                  (     0         -1          0      )
                  (     0          0         -1      )

 cart.    s( 2) = (  1.0000000  0.0000000  0.0000000 )
                  (  0.0000000 -1.0000000  0.0000000 )
                  (  0.0000000  0.0000000 -1.0000000 )

     point group C_2  (2)
     there are  2 classes
     the character table:

       E     C2
A      1.00  1.00
B      1.00 -1.00

     the symmetry operations in each class and the name of the first element:

     E        1
          identity
     C2       2
          180 deg rotation - cart. axis [1,0,0]

   Cartesian axes

     site n.     atom                  positions (alat units)
         1           Si  tau(   1) = (   0.2355733   0.0000000   0.0000000  )
         2           Si  tau(   2) = (   0.7355732   0.0000000   0.0000000  )
         3           Si  tau(   3) = (   0.4837387   0.4330127   0.0000000  )
         4           Si  tau(   4) = (   0.9837388   0.4330127   0.0000000  )
         5           O   tau(   5) = (   0.1399319   0.7468191   0.0592770  )
         6           O   tau(   6) = (   0.6399319   0.7468192   0.0592770  )
         7           O   tau(   7) = (   0.3899565   0.3155350   0.0664827  )
         8           O   tau(   8) = (   0.8899565   0.3155349   0.0664827  )
         9           O   tau(   9) = (   0.3295200   0.0595910   0.1212084  )
        10           O   tau(  10) = (   0.8295201   0.0595910   0.1212085  )
        11           O   tau(  11) = (   0.0780996   0.4951179   0.1195981  )
        12           O   tau(  12) = (   0.5780997   0.4951180   0.1195981  )
        13           Si  tau(  13) = (   0.3830231   0.2012792   0.1849174  )
        14           Si  tau(  14) = (   0.8830231   0.2012792   0.1849174  )
        15           Si  tau(  15) = (   0.1325110   0.6368559   0.1814016  )
        16           Si  tau(  16) = (   0.6325108   0.6368559   0.1814016  )
        17           O   tau(  17) = (   0.0310675   0.1757255   0.2508372  )
        18           O   tau(  18) = (   0.5310676   0.1757256   0.2508373  )
        19           O   tau(  19) = (   0.2812343   0.6139809   0.2463042  )
        20           O   tau(  20) = (   0.7812344   0.6139808   0.2463042  )
        21           O   tau(  21) = (   0.0310675   0.6902999   0.2991221  )
        22           O   tau(  22) = (   0.5310676   0.6902998   0.2991220  )
        23           O   tau(  23) = (   0.2812343   0.2520445   0.3036551  )
        24           O   tau(  24) = (   0.7812344   0.2520446   0.3036551  )
        25           Si  tau(  25) = (   0.3830231   0.6647462   0.3650419  )
        26           Si  tau(  26) = (   0.8830231   0.6647462   0.3650419  )
        27           Si  tau(  27) = (   0.1325110   0.2291695   0.3685577  )
        28           Si  tau(  28) = (   0.6325108   0.2291695   0.3685577  )
        29           O   tau(  29) = (   0.3295200   0.8064344   0.4287509  )
        30           O   tau(  30) = (   0.8295201   0.8064344   0.4287508  )
        31           O   tau(  31) = (   0.0780996   0.3709075   0.4303612  )
        32           O   tau(  32) = (   0.5780997   0.3709074   0.4303612  )
        33           O   tau(  33) = (   0.1399319   0.1192063   0.4906823  )
        34           O   tau(  34) = (   0.6399319   0.1192063   0.4906823  )
        35           O   tau(  35) = (   0.3899565   0.5504904   0.4834766  )
        36           O   tau(  36) = (   0.8899565   0.5504905   0.4834766  )

   Crystallographic axes

     site n.     atom                  positions (cryst. coord.)
         1           Si  tau(   1) = (  0.2355733  0.0000000  0.0000000  )
         2           Si  tau(   2) = (  0.7355732  0.0000000  0.0000000  )
         3           Si  tau(   3) = (  0.4837387  0.5000000  0.0000000  )
         4           Si  tau(   4) = (  0.9837388  0.5000000  0.0000000  )
         5           O   tau(   5) = (  0.1399319  0.8623524  0.1077843  )
         6           O   tau(   6) = (  0.6399319  0.8623525  0.1077843  )
         7           O   tau(   7) = (  0.3899565  0.3643484  0.1208866  )
         8           O   tau(   8) = (  0.8899565  0.3643484  0.1208866  )
         9           O   tau(   9) = (  0.3295200  0.0688098  0.2203953  )
        10           O   tau(  10) = (  0.8295201  0.0688098  0.2203953  )
        11           O   tau(  11) = (  0.0780996  0.5717129  0.2174671  )
        12           O   tau(  12) = (  0.5780997  0.5717130  0.2174673  )
        13           Si  tau(  13) = (  0.3830231  0.2324172  0.3362383  )
        14           Si  tau(  14) = (  0.8830231  0.2324172  0.3362384  )
        15           Si  tau(  15) = (  0.1325110  0.7353779  0.3298455  )
        16           Si  tau(  16) = (  0.6325108  0.7353778  0.3298456  )
        17           O   tau(  17) = (  0.0310675  0.2029104  0.4561014  )
        18           O   tau(  18) = (  0.5310676  0.2029104  0.4561016  )
        19           O   tau(  19) = (  0.2812343  0.7089640  0.4478589  )
        20           O   tau(  20) = (  0.7812344  0.7089640  0.4478590  )
        21           O   tau(  21) = (  0.0310675  0.7970896  0.5438986  )
        22           O   tau(  22) = (  0.5310676  0.7970896  0.5438984  )
        23           O   tau(  23) = (  0.2812343  0.2910360  0.5521411  )
        24           O   tau(  24) = (  0.7812344  0.2910360  0.5521410  )
        25           Si  tau(  25) = (  0.3830231  0.7675828  0.6637617  )
        26           Si  tau(  26) = (  0.8830231  0.7675828  0.6637616  )
        27           Si  tau(  27) = (  0.1325110  0.2646221  0.6701545  )
        28           Si  tau(  28) = (  0.6325108  0.2646222  0.6701544  )
        29           O   tau(  29) = (  0.3295200  0.9311902  0.7796047  )
        30           O   tau(  30) = (  0.8295201  0.9311902  0.7796047  )
        31           O   tau(  31) = (  0.0780996  0.4282871  0.7825329  )
        32           O   tau(  32) = (  0.5780997  0.4282870  0.7825327  )
        33           O   tau(  33) = (  0.1399319  0.1376476  0.8922157  )
        34           O   tau(  34) = (  0.6399319  0.1376475  0.8922157  )
        35           O   tau(  35) = (  0.3899565  0.6356516  0.8791134  )
        36           O   tau(  36) = (  0.8899565  0.6356516  0.8791134  )

     number of k points=     8
                       cart. coord. in units 2pi/alat
        k(    1) = (   0.2500000   0.1443376   0.2272895), wk =   0.2500000
        k(    2) = (   0.2500000   0.1443376   0.6818686), wk =   0.2500000
        k(    3) = (   0.2500000   0.4330127   0.2272895), wk =   0.2500000
        k(    4) = (   0.2500000   0.4330127   0.6818686), wk =   0.2500000
        k(    5) = (  -0.2500000   0.1443376  -0.2272895), wk =   0.2500000
        k(    6) = (  -0.2500000   0.1443376  -0.6818686), wk =   0.2500000
        k(    7) = (  -0.2500000   0.4330127  -0.2272895), wk =   0.2500000
        k(    8) = (  -0.2500000   0.4330127  -0.6818686), wk =   0.2500000

                       cryst. coord.
        k(    1) = (   0.2500000   0.1250000   0.1250000), wk =   0.2500000
        k(    2) = (   0.2500000   0.1250000   0.3750000), wk =   0.2500000
        k(    3) = (   0.2500000   0.3750000   0.1250000), wk =   0.2500000
        k(    4) = (   0.2500000   0.3750000   0.3750000), wk =   0.2500000
[...]
     atom    3 type  1   force =    -0.03101059    0.00000000    0.00000000
     atom    4 type  1   force =    -0.03101897    0.00000000    0.00000000
     atom    5 type  2   force =     0.82262815    0.09710147    0.57813539
     atom    6 type  2   force =     0.82262079    0.09710165    0.57813412
     atom    7 type  2   force =     0.80500708    0.03580338    0.45378516
     atom    8 type  2   force =     0.80500979    0.03580334    0.45378482
     atom    9 type  2   force =    -0.37053838    0.76474823   -0.53176769
     atom   10 type  2   force =    -0.37054000    0.76474698   -0.53176750
     atom   11 type  2   force =    -0.36177139    0.75005774   -0.52510868
     atom   12 type  2   force =    -0.36177872    0.75005789   -0.52510823
     atom   13 type  1   force =     0.00447451   -0.00109898   -0.01582128
     atom   14 type  1   force =     0.00447149   -0.00109884   -0.01582520
     atom   15 type  1   force =     0.00594677   -0.00486736    0.00192711
     atom   16 type  1   force =     0.00595833   -0.00486261    0.00192450
     atom   17 type  2   force =    -0.43637741    0.74190516    0.46032818
     atom   18 type  2   force =    -0.43638377    0.74190563    0.46032821
     atom   19 type  2   force =    -0.44855962    0.67946992    0.48532872
     atom   20 type  2   force =    -0.44856186    0.67946947    0.48532854
     atom   21 type  2   force =    -0.43637741   -0.74190516   -0.46032818
     atom   22 type  2   force =    -0.43638377   -0.74190563   -0.46032821
     atom   23 type  2   force =    -0.44855962   -0.67946992   -0.48532872
     atom   24 type  2   force =    -0.44856186   -0.67946947   -0.48532854
     atom   25 type  1   force =     0.00447451    0.00109898    0.01582128
     atom   26 type  1   force =     0.00447149    0.00109884    0.01582520
     atom   27 type  1   force =     0.00594677    0.00486736   -0.00192711
     atom   28 type  1   force =     0.00595833    0.00486261   -0.00192450
     atom   29 type  2   force =    -0.37053838   -0.76474823    0.53176769
     atom   30 type  2   force =    -0.37054000   -0.76474698    0.53176750
     atom   31 type  2   force =    -0.36177139   -0.75005774    0.52510868
     atom   32 type  2   force =    -0.36177872   -0.75005789    0.52510823
     atom   33 type  2   force =     0.82262815   -0.09710147   -0.57813539
     atom   34 type  2   force =     0.82262079   -0.09710165   -0.57813412
     atom   35 type  2   force =     0.80500708   -0.03580338   -0.45378516
     atom   36 type  2   force =     0.80500979   -0.03580334   -0.45378482
     The ionic contribution  to forces
     atom    1 type  1   force =     0.00883151    0.00000017   -0.00000024
     atom    2 type  1   force =     0.00884355    0.00000017   -0.00000024
     atom    3 type  1   force =    -0.16576874    0.00000013   -0.00000000
     atom    4 type  1   force =    -0.16578781    0.00000013   -0.00000000
     atom    5 type  2   force =    -3.45677002   -0.01682331   -1.93389487
     atom    6 type  2   force =    -3.45677129   -0.01684208   -1.93388149
     atom    7 type  2   force =    -3.43484700    0.42635911   -1.58899204
     atom    8 type  2   force =    -3.43485188    0.42636857   -1.58900284
     atom    9 type  2   force =     1.95081743   -2.83572852    1.65269365
     atom   10 type  2   force =     1.95080868   -2.83573675    1.65268038
     atom   11 type  2   force =     1.96056657   -3.03012299    1.77618169
     atom   12 type  2   force =     1.96055416   -3.03015301    1.77615115
     atom   13 type  1   force =     0.04776622    0.10301267   -0.10800250
     atom   14 type  1   force =     0.04775770    0.10301370   -0.10801115
     atom   15 type  1   force =     0.04013966   -0.15834677    0.02739246
     atom   16 type  1   force =     0.04016159   -0.15833723    0.02738480
     atom   17 type  2   force =     1.50572927   -3.08887349   -1.64514152
     atom   18 type  2   force =     1.50569027   -3.08888032   -1.64517151
     atom   19 type  2   force =     1.46510925   -3.33725110   -1.60718357
     atom   20 type  2   force =     1.46507920   -3.33725062   -1.60720590
     atom   21 type  2   force =     1.50572937    3.08887366    1.64514130
     atom   22 type  2   force =     1.50569037    3.08888049    1.64517128
     atom   23 type  2   force =     1.46510932    3.33725110    1.60718352
     atom   24 type  2   force =     1.46507927    3.33725062    1.60720585
     atom   25 type  1   force =     0.04776635   -0.10301292    0.10800245
     atom   26 type  1   force =     0.04775783   -0.10301395    0.10801111
     atom   27 type  1   force =     0.04013982    0.15834678   -0.02739271
     atom   28 type  1   force =     0.04016174    0.15833724   -0.02738504
     atom   29 type  2   force =     1.95081731    2.83572840   -1.65269360
     atom   30 type  2   force =     1.95080857    2.83573663   -1.65268033
     atom   31 type  2   force =     1.96056654    3.03012352   -1.77618165
     atom   32 type  2   force =     1.96055412    3.03015354   -1.77615111
     atom   33 type  2   force =    -3.45676944    0.01682247    1.93389563
     atom   34 type  2   force =    -3.45677071    0.01684124    1.93388225
     atom   35 type  2   force =    -3.43484693   -0.42635892    1.58899200
     atom   36 type  2   force =    -3.43485182   -0.42636838    1.58900280
     The local contribution  to forces
     atom    1 type  1   force =    -0.01373898    0.00000000   -0.00000000
     atom    2 type  1   force =    -0.01375226   -0.00000000    0.00000000
     atom    3 type  1   force =     0.19336544    0.00000000    0.00000000
     atom    4 type  1   force =     0.19338603    0.00000000    0.00000000
     atom    5 type  2   force =     2.64612882   -0.07786448    1.37109724
     atom    6 type  2   force =     2.64613496   -0.07784811    1.37108654
     atom    7 type  2   force =     2.64205506   -0.46046078    1.14184589
     atom    8 type  2   force =     2.64205774   -0.46046898    1.14185611
     atom    9 type  2   force =    -1.58375294    2.08546742   -1.13334281
     atom   10 type  2   force =    -1.58374484    2.08547606   -1.13333153
     atom   11 type  2   force =    -1.60392416    2.29017385   -1.26268629
     atom   12 type  2   force =    -1.60390810    2.29019971   -1.26265976
     atom   13 type  1   force =    -0.05198639   -0.10181323    0.12195476
     atom   14 type  1   force =    -0.05197801   -0.10181374    0.12196452
     atom   15 type  1   force =    -0.04581873    0.16307959   -0.02922803
     atom   16 type  1   force =    -0.04584271    0.16306849   -0.02921919
     atom   17 type  2   force =    -1.07717349    2.35873497    1.19177866
     atom   18 type  2   force =    -1.07713455    2.35874019    1.19180433
     atom   19 type  2   force =    -1.02377604    2.66581073    1.13169845
     atom   20 type  2   force =    -1.02374898    2.66581066    1.13171822
     atom   21 type  2   force =    -1.07717353   -2.35874386   -1.19177852
     atom   22 type  2   force =    -1.07713459   -2.35874908   -1.19180418
     atom   23 type  2   force =    -1.02377604   -2.66581073   -1.13169845
     atom   24 type  2   force =    -1.02374898   -2.66581066   -1.13171822
     atom   25 type  1   force =    -0.05198639    0.10181323   -0.12195476
     atom   26 type  1   force =    -0.05197801    0.10181374   -0.12196452
     atom   27 type  1   force =    -0.04581873   -0.16307959    0.02922803
     atom   28 type  1   force =    -0.04584271   -0.16306849    0.02921919
     atom   29 type  2   force =    -1.58375294   -2.08546742    1.13334281
     atom   30 type  2   force =    -1.58374484   -2.08547606    1.13333153
     atom   31 type  2   force =    -1.60392416   -2.29017385    1.26268629
     atom   32 type  2   force =    -1.60390810   -2.29019971    1.26265976
     atom   33 type  2   force =     2.64612840    0.07785633   -1.37109785
     atom   34 type  2   force =     2.64613454    0.07783995   -1.37108715
     atom   35 type  2   force =     2.64205506    0.46046078   -1.14184589
     atom   36 type  2   force =     2.64205774    0.46046898   -1.14185611
     The core correction contribution to forces
     atom    1 type  1   force =    -0.00108878    0.00000000   -0.00000000
     atom    2 type  1   force =    -0.00108944    0.00000000   -0.00000000
     atom    3 type  1   force =     0.00321011    0.00000000   -0.00000000
     atom    4 type  1   force =     0.00321103    0.00000000   -0.00000000
     atom    5 type  2   force =    -0.01218898   -0.00242401   -0.01534274
     atom    6 type  2   force =    -0.01218893   -0.00242384   -0.01534280
     atom    7 type  2   force =    -0.01241742   -0.00169947   -0.00664058
     atom    8 type  2   force =    -0.01241739   -0.00169938   -0.00664051
     atom    9 type  2   force =     0.00328955   -0.01448608    0.01240119
     atom   10 type  2   force =     0.00328949   -0.01448615    0.01240130
     atom   11 type  2   force =     0.00492767   -0.01010422    0.01161081
     atom   12 type  2   force =     0.00492770   -0.01010436    0.01161119
     atom   13 type  1   force =    -0.00044010   -0.00010726    0.00187535
     atom   14 type  1   force =    -0.00043977   -0.00010728    0.00187577
     atom   15 type  1   force =    -0.00046679    0.00012477   -0.00010383
     atom   16 type  1   force =    -0.00046803    0.00012427   -0.00010355
     atom   17 type  2   force =     0.00761723   -0.01176382   -0.00697373
     atom   18 type  2   force =     0.00761762   -0.01176392   -0.00697344
     atom   19 type  2   force =     0.00703514   -0.00802685   -0.00984971
     atom   20 type  2   force =     0.00703537   -0.00802678   -0.00984949
     atom   21 type  2   force =     0.00761723    0.01176389    0.00697372
     atom   22 type  2   force =     0.00761762    0.01176399    0.00697343
     atom   23 type  2   force =     0.00703514    0.00802685    0.00984971
     atom   24 type  2   force =     0.00703537    0.00802678    0.00984949
     atom   25 type  1   force =    -0.00044010    0.00010726   -0.00187535
     atom   26 type  1   force =    -0.00043977    0.00010728   -0.00187577
     atom   27 type  1   force =    -0.00046679   -0.00012477    0.00010383
     atom   28 type  1   force =    -0.00046803   -0.00012427    0.00010355
     atom   29 type  2   force =     0.00328955    0.01448608   -0.01240119
     atom   30 type  2   force =     0.00328949    0.01448615   -0.01240130
     atom   31 type  2   force =     0.00492767    0.01010422   -0.01161081
     atom   32 type  2   force =     0.00492770    0.01010436   -0.01161119
     atom   33 type  2   force =    -0.01218897    0.00242411    0.01534276
     atom   34 type  2   force =    -0.01218892    0.00242395    0.01534281
     atom   35 type  2   force =    -0.01241742    0.00169947    0.00664058
     atom   36 type  2   force =    -0.01241739    0.00169938    0.00664051
     The Hubbard contrib.    to forces
     atom    1 type  1   force =     0.00000000    0.00000000    0.00000000
     atom    2 type  1   force =     0.00000000    0.00000000    0.00000000
     atom    3 type  1   force =     0.00000000    0.00000000    0.00000000
     atom    4 type  1   force =     0.00000000    0.00000000    0.00000000
     atom    5 type  2   force =     0.00000000    0.00000000    0.00000000
     atom    6 type  2   force =     0.00000000    0.00000000    0.00000000
     atom    7 type  2   force =     0.00000000    0.00000000    0.00000000
     atom    8 type  2   force =     0.00000000    0.00000000    0.00000000
     atom    9 type  2   force =     0.00000000    0.00000000    0.00000000
     atom   10 type  2   force =     0.00000000    0.00000000    0.00000000
     atom   11 type  2   force =     0.00000000    0.00000000    0.00000000
     atom   12 type  2   force =     0.00000000    0.00000000    0.00000000
     atom   13 type  1   force =     0.00000000    0.00000000    0.00000000
     atom   14 type  1   force =     0.00000000    0.00000000    0.00000000
     atom   15 type  1   force =     0.00000000    0.00000000    0.00000000
     atom   16 type  1   force =     0.00000000    0.00000000    0.00000000
     atom   17 type  2   force =     0.00000000    0.00000000    0.00000000
     atom   18 type  2   force =     0.00000000    0.00000000    0.00000000
     atom   19 type  2   force =     0.00000000    0.00000000    0.00000000
     atom   20 type  2   force =     0.00000000    0.00000000    0.00000000
     atom   21 type  2   force =     0.00000000    0.00000000    0.00000000
     atom   22 type  2   force =     0.00000000    0.00000000    0.00000000
     atom   23 type  2   force =     0.00000000    0.00000000    0.00000000
     atom   24 type  2   force =     0.00000000    0.00000000    0.00000000
     atom   25 type  1   force =     0.00000000    0.00000000    0.00000000
     atom   26 type  1   force =     0.00000000    0.00000000    0.00000000
     atom   27 type  1   force =     0.00000000    0.00000000    0.00000000
     atom   28 type  1   force =     0.00000000    0.00000000    0.00000000
     atom   29 type  2   force =     0.00000000    0.00000000    0.00000000
     atom   30 type  2   force =     0.00000000    0.00000000    0.00000000
     atom   31 type  2   force =     0.00000000    0.00000000    0.00000000
     atom   32 type  2   force =     0.00000000    0.00000000    0.00000000
     atom   33 type  2   force =     0.00000000    0.00000000    0.00000000
     atom   34 type  2   force =     0.00000000    0.00000000    0.00000000
     atom   35 type  2   force =     0.00000000    0.00000000    0.00000000
     atom   36 type  2   force =     0.00000000    0.00000000    0.00000000
     The SCF correction term to forces
     atom    1 type  1   force =    -0.00000112   -0.00000000   -0.00000000
     atom    2 type  1   force =    -0.00000013   -0.00000000   -0.00000000
     atom    3 type  1   force =    -0.00000085    0.00000000    0.00000000
     atom    4 type  1   force =    -0.00000056    0.00000000    0.00000000
     atom    5 type  2   force =    -0.00000120    0.00000101   -0.00000147
     atom    6 type  2   force =    -0.00000072    0.00000058   -0.00000098
     atom    7 type  2   force =    -0.00000198    0.00000146   -0.00000127
     atom    8 type  2   force =    -0.00000139    0.00000133   -0.00000114
     atom    9 type  2   force =     0.00000026   -0.00000033   -0.00000040
     atom   10 type  2   force =     0.00000145   -0.00000042    0.00000022
     atom   11 type  2   force =     0.00000124   -0.00000130    0.00000078
     atom   12 type  2   force =     0.00000132   -0.00000132    0.00000082
     atom   13 type  1   force =     0.00000012    0.00000102   -0.00000017
     atom   14 type  1   force =     0.00000041    0.00000067    0.00000001
     atom   15 type  1   force =    -0.00000001   -0.00000035    0.00000002
     atom   16 type  1   force =     0.00000027   -0.00000069    0.00000024
     atom   17 type  2   force =     0.00000004   -0.00000157   -0.00000115
     atom   18 type  2   force =     0.00000017   -0.00000121   -0.00000101
     atom   19 type  2   force =    -0.00000033   -0.00000233   -0.00000084
     atom   20 type  2   force =     0.00000029   -0.00000232   -0.00000086
     atom   21 type  2   force =     0.00000004    0.00000157    0.00000115
     atom   22 type  2   force =     0.00000017    0.00000121    0.00000101
     atom   23 type  2   force =    -0.00000033    0.00000233    0.00000084
     atom   24 type  2   force =     0.00000029    0.00000232    0.00000086
     atom   25 type  1   force =     0.00000012   -0.00000102    0.00000017
     atom   26 type  1   force =     0.00000041   -0.00000067   -0.00000001
     atom   27 type  1   force =    -0.00000001    0.00000035   -0.00000002
     atom   28 type  1   force =     0.00000027    0.00000069   -0.00000024
     atom   29 type  2   force =     0.00000026    0.00000033    0.00000040
     atom   30 type  2   force =     0.00000145    0.00000042   -0.00000022
     atom   31 type  2   force =     0.00000124    0.00000130   -0.00000078
     atom   32 type  2   force =     0.00000132    0.00000132   -0.00000082
     atom   33 type  2   force =    -0.00000120   -0.00000101    0.00000147
     atom   34 type  2   force =    -0.00000072   -0.00000058    0.00000098
     atom   35 type  2   force =    -0.00000198   -0.00000146    0.00000127
     atom   36 type  2   force =    -0.00000139   -0.00000133    0.00000114

     Total force =     0.000080     Total SCF correction =     0.000010
     SCF correction compared to forces is large: reduce conv_thr to get better values

     Writing output data file ./SiO2_OR_36_2.save/

     General routines

     Parallel routines

   This run was terminated on:  21:59:48  30Jun2021

   JOB DONE.