     Program PWSCF v.6.6 starts on 21Jun2021 at 19:37:12

     R & G space division:  proc/nbgrp/npool/nimage =      96
     wavefunctions fft division:  Y-proc x Z-proc =       4     24
     wavefunctions fft division:  task group distribution
                                  #TG    x Z-proc =       4     24
     Fft bands division:     nmany     =       1
     Reading input from ../inputs/input_quarzo_36
Warning: card &CELL ignored
Warning: card / ignored

     Current dimensions of program PWSCF are:
     Max number of different atomic species (ntypx) = 10
     Max number of k-points (npk) =  40000
     Max angular momentum in pseudopotentials (lmaxx) =  3

     Subspace diagonalization in iterative solution of the eigenvalue problem:
     one sub-group per band group will be used

     Found symmetry operation: I + (  0.5000  0.0000  0.0000)
     This is a supercell, fractional translations are disabled

     Title:
     'srtio_bulk'

     bravais-lattice index     =            8
     lattice parameter (alat)  =      18.5722  a.u.
     unit-cell volume          =    3051.0810 (a.u.)^3
     number of atoms/cell      =           36
     number of atomic types    =            2
     number of electrons       =       192.00
     number of Kohn-Sham states=           96
     kinetic-energy cutoff     =      40.0000  Ry
     charge density cutoff     =     250.0000  Ry
     convergence threshold     =      1.0E-10
     mixing beta               =       0.7000
     number of iterations used =            8  plain     mixing
     Exchange-correlation= PBESOL
                           (   1   4  10   8   0   0   0)

     celldm(1)=  18.572236  celldm(2)=   0.866025  celldm(3)=   0.549959
     celldm(4)=   0.000000  celldm(5)=   0.000000  celldm(6)=   0.000000

     crystal axes: (cart. coord. in units of alat)
               a(1) = (   1.000000   0.000000   0.000000 )
               a(2) = (   0.000000   0.866025   0.000000 )
               a(3) = (   0.000000   0.000000   0.549959 )

     reciprocal axes: (cart. coord. in units 2 pi/alat)
               b(1) = (  1.000000  0.000000  0.000000 )
               b(2) = (  0.000000  1.154701  0.000000 )
               b(3) = (  0.000000  0.000000  1.818316 )

     PseudoPot. # 1 for Si read from file:
     ./../pseudo/Si.pbesol-n-rrkjus_psl.0.1.UPF
     MD5 check sum: 84986bd6be9e79932892c86d18f23292
     Pseudo is Ultrasoft + core correction, Zval =  4.0
     Generated using "atomic" code by A. Dal Corso v.5.0.2 svn rev. 9415
     Using radial grid of 1141 points,  4 beta functions with:
                l(1) =   0
                l(2) =   0
                l(3) =   1
                l(4) =   1
     Q(r) pseudized with 0 coefficients

     PseudoPot. # 2 for O  read from file:
     ./../pseudo/O.pbesol-n-rrkjus_psl.0.1.UPF
     MD5 check sum: 860b55360c6eac1e4db712ce01d51bd8
     Pseudo is Ultrasoft + core correction, Zval =  6.0
     Generated using "atomic" code by A. Dal Corso v.5.0.2 svn rev. 9415
     Using radial grid of 1095 points,  4 beta functions with:
                l(1) =   0
                l(2) =   0
                l(3) =   1
                l(4) =   1
     Q(r) pseudized with 0 coefficients

     atomic species   valence    mass     pseudopotential
        Si             4.00    47.86700     Si( 1.00)
        O              6.00    15.99940     O ( 1.00)

      2 Sym. Ops. (no inversion) found

                                    s                        frac. trans.

      isym =  1     identity

 cryst.   s( 1) = (     1          0          0      )
                  (     0          1          0      )
                  (     0          0          1      )

 cart.    s( 1) = (  1.0000000  0.0000000  0.0000000 )
                  (  0.0000000  1.0000000  0.0000000 )
                  (  0.0000000  0.0000000  1.0000000 )

      isym =  2     180 deg rotation - cart. axis [1,0,0]

 cryst.   s( 2) = (     1          0          0      )
                  (     0         -1          0      )
                  (     0          0         -1      )

 cart.    s( 2) = (  1.0000000  0.0000000  0.0000000 )
                  (  0.0000000 -1.0000000  0.0000000 )
                  (  0.0000000  0.0000000 -1.0000000 )

     point group C_2  (2)
     there are  2 classes
     the character table:

       E     C2
A      1.00  1.00
B      1.00 -1.00

     the symmetry operations in each class and the name of the first element:

     E        1
          identity
     C2       2
          180 deg rotation - cart. axis [1,0,0]

   Cartesian axes

     site n.     atom                  positions (alat units)
         1           Si  tau(   1) = (   0.2355733   0.0000000   0.0000000  )
         2           Si  tau(   2) = (   0.7355732   0.0000000   0.0000000  )
         3           Si  tau(   3) = (   0.4837387   0.4330127   0.0000000  )
         4           Si  tau(   4) = (   0.9837388   0.4330127   0.0000000  )
         5           O   tau(   5) = (   0.1399319   0.7468191   0.0592770  )
         6           O   tau(   6) = (   0.6399319   0.7468192   0.0592770  )
         7           O   tau(   7) = (   0.3899565   0.3155350   0.0664827  )
         8           O   tau(   8) = (   0.8899565   0.3155349   0.0664827  )
         9           O   tau(   9) = (   0.3295200   0.0595910   0.1212084  )
        10           O   tau(  10) = (   0.8295201   0.0595910   0.1212085  )
        11           O   tau(  11) = (   0.0780996   0.4951179   0.1195981  )
        12           O   tau(  12) = (   0.5780997   0.4951180   0.1195981  )
        13           Si  tau(  13) = (   0.3830231   0.2012792   0.1849174  )
        14           Si  tau(  14) = (   0.8830231   0.2012792   0.1849174  )
        15           Si  tau(  15) = (   0.1325110   0.6368559   0.1814016  )
        16           Si  tau(  16) = (   0.6325108   0.6368559   0.1814016  )
        17           O   tau(  17) = (   0.0310675   0.1757255   0.2508372  )
        18           O   tau(  18) = (   0.5310676   0.1757256   0.2508373  )
        19           O   tau(  19) = (   0.2812343   0.6139809   0.2463042  )
        20           O   tau(  20) = (   0.7812344   0.6139808   0.2463042  )
        21           O   tau(  21) = (   0.0310675   0.6902999   0.2991221  )
        22           O   tau(  22) = (   0.5310676   0.6902998   0.2991220  )
        23           O   tau(  23) = (   0.2812343   0.2520445   0.3036551  )
        24           O   tau(  24) = (   0.7812344   0.2520446   0.3036551  )
        25           Si  tau(  25) = (   0.3830231   0.6647462   0.3650419  )
        26           Si  tau(  26) = (   0.8830231   0.6647462   0.3650419  )
        27           Si  tau(  27) = (   0.1325110   0.2291695   0.3685577  )
        28           Si  tau(  28) = (   0.6325108   0.2291695   0.3685577  )
        29           O   tau(  29) = (   0.3295200   0.8064344   0.4287509  )
        30           O   tau(  30) = (   0.8295201   0.8064344   0.4287508  )
        31           O   tau(  31) = (   0.0780996   0.3709075   0.4303612  )
        32           O   tau(  32) = (   0.5780997   0.3709074   0.4303612  )
        33           O   tau(  33) = (   0.1399319   0.1192063   0.4906823  )
        34           O   tau(  34) = (   0.6399319   0.1192063   0.4906823  )
        35           O   tau(  35) = (   0.3899565   0.5504904   0.4834766  )
        36           O   tau(  36) = (   0.8899565   0.5504905   0.4834766  )

   Crystallographic axes

     site n.     atom                  positions (cryst. coord.)
         1           Si  tau(   1) = (  0.2355733  0.0000000  0.0000000  )
         2           Si  tau(   2) = (  0.7355732  0.0000000  0.0000000  )
         3           Si  tau(   3) = (  0.4837387  0.5000000  0.0000000  )
         4           Si  tau(   4) = (  0.9837388  0.5000000  0.0000000  )
         5           O   tau(   5) = (  0.1399319  0.8623524  0.1077843  )
         6           O   tau(   6) = (  0.6399319  0.8623525  0.1077843  )
         7           O   tau(   7) = (  0.3899565  0.3643484  0.1208866  )
         8           O   tau(   8) = (  0.8899565  0.3643484  0.1208866  )
         9           O   tau(   9) = (  0.3295200  0.0688098  0.2203953  )
        10           O   tau(  10) = (  0.8295201  0.0688098  0.2203953  )
        11           O   tau(  11) = (  0.0780996  0.5717129  0.2174671  )
        12           O   tau(  12) = (  0.5780997  0.5717130  0.2174673  )
        13           Si  tau(  13) = (  0.3830231  0.2324172  0.3362383  )
        14           Si  tau(  14) = (  0.8830231  0.2324172  0.3362384  )
        15           Si  tau(  15) = (  0.1325110  0.7353779  0.3298455  )
        16           Si  tau(  16) = (  0.6325108  0.7353778  0.3298456  )
        17           O   tau(  17) = (  0.0310675  0.2029104  0.4561014  )
        18           O   tau(  18) = (  0.5310676  0.2029104  0.4561016  )
        19           O   tau(  19) = (  0.2812343  0.7089640  0.4478589  )
        20           O   tau(  20) = (  0.7812344  0.7089640  0.4478590  )
        21           O   tau(  21) = (  0.0310675  0.7970896  0.5438986  )
        22           O   tau(  22) = (  0.5310676  0.7970896  0.5438984  )
        23           O   tau(  23) = (  0.2812343  0.2910360  0.5521411  )
        24           O   tau(  24) = (  0.7812344  0.2910360  0.5521410  )
        25           Si  tau(  25) = (  0.3830231  0.7675828  0.6637617  )
        26           Si  tau(  26) = (  0.8830231  0.7675828  0.6637616  )
        27           Si  tau(  27) = (  0.1325110  0.2646221  0.6701545  )
        28           Si  tau(  28) = (  0.6325108  0.2646222  0.6701544  )
        29           O   tau(  29) = (  0.3295200  0.9311902  0.7796047  )
        30           O   tau(  30) = (  0.8295201  0.9311902  0.7796047  )
        31           O   tau(  31) = (  0.0780996  0.4282871  0.7825329  )
        32           O   tau(  32) = (  0.5780997  0.4282870  0.7825327  )
        33           O   tau(  33) = (  0.1399319  0.1376476  0.8922157  )
        34           O   tau(  34) = (  0.6399319  0.1376475  0.8922157  )
        35           O   tau(  35) = (  0.3899565  0.6356516  0.8791134  )
        36           O   tau(  36) = (  0.8899565  0.6356516  0.8791134  )

     number of k points=     8
                       cart. coord. in units 2pi/alat
        k(    1) = (   0.2500000   0.1443376   0.2272895), wk =   0.2500000
        k(    2) = (   0.2500000   0.1443376   0.6818686), wk =   0.2500000
        k(    3) = (   0.2500000   0.4330127   0.2272895), wk =   0.2500000
        k(    4) = (   0.2500000   0.4330127   0.6818686), wk =   0.2500000
        k(    5) = (  -0.2500000   0.1443376  -0.2272895), wk =   0.2500000
        k(    6) = (  -0.2500000   0.1443376  -0.6818686), wk =   0.2500000
        k(    7) = (  -0.2500000   0.4330127  -0.2272895), wk =   0.2500000
        k(    8) = (  -0.2500000   0.4330127  -0.6818686), wk =   0.2500000

                       cryst. coord.
        k(    1) = (   0.2500000   0.1250000   0.1250000), wk =   0.2500000
        k(    2) = (   0.2500000   0.1250000   0.3750000), wk =   0.2500000
        k(    3) = (   0.2500000   0.3750000   0.1250000), wk =   0.2500000
[...]
     atom    3 type  1   force =    -0.03101058    0.00000000    0.00000000
     atom    4 type  1   force =    -0.03101866    0.00000000    0.00000000
     atom    5 type  2   force =     0.82262823    0.09710149    0.57813518
     atom    6 type  2   force =     0.82262087    0.09710148    0.57813400
     atom    7 type  2   force =     0.80500691    0.03580358    0.45378500
     atom    8 type  2   force =     0.80500975    0.03580340    0.45378471
     atom    9 type  2   force =    -0.37053887    0.76474823   -0.53176784
     atom   10 type  2   force =    -0.37054003    0.76474693   -0.53176757
     atom   11 type  2   force =    -0.36177126    0.75005765   -0.52510869
     atom   12 type  2   force =    -0.36177862    0.75005758   -0.52510824
     atom   13 type  1   force =     0.00447424   -0.00109870   -0.01582125
     atom   14 type  1   force =     0.00447145   -0.00109874   -0.01582492
     atom   15 type  1   force =     0.00594690   -0.00486726    0.00192661
     atom   16 type  1   force =     0.00595857   -0.00486287    0.00192420
     atom   17 type  2   force =    -0.43637707    0.74190529    0.46032832
     atom   18 type  2   force =    -0.43638364    0.74190595    0.46032833
     atom   19 type  2   force =    -0.44855976    0.67946958    0.48532855
     atom   20 type  2   force =    -0.44856173    0.67946912    0.48532841
     atom   21 type  2   force =    -0.43637707   -0.74190529   -0.46032832
     atom   22 type  2   force =    -0.43638364   -0.74190595   -0.46032833
     atom   23 type  2   force =    -0.44855976   -0.67946958   -0.48532855
     atom   24 type  2   force =    -0.44856173   -0.67946912   -0.48532841
     atom   25 type  1   force =     0.00447424    0.00109870    0.01582125
     atom   26 type  1   force =     0.00447145    0.00109874    0.01582492
     atom   27 type  1   force =     0.00594690    0.00486726   -0.00192661
     atom   28 type  1   force =     0.00595857    0.00486287   -0.00192420
     atom   29 type  2   force =    -0.37053887   -0.76474823    0.53176784
     atom   30 type  2   force =    -0.37054003   -0.76474693    0.53176757
     atom   31 type  2   force =    -0.36177126   -0.75005765    0.52510869
     atom   32 type  2   force =    -0.36177862   -0.75005758    0.52510824
     atom   33 type  2   force =     0.82262823   -0.09710149   -0.57813518
     atom   34 type  2   force =     0.82262087   -0.09710148   -0.57813400
     atom   35 type  2   force =     0.80500691   -0.03580358   -0.45378500
     atom   36 type  2   force =     0.80500975   -0.03580340   -0.45378471
     The ionic contribution  to forces
     atom    1 type  1   force =     0.00883151    0.00000017   -0.00000024
     atom    2 type  1   force =     0.00884355    0.00000017   -0.00000024
     atom    3 type  1   force =    -0.16576874    0.00000013   -0.00000000
     atom    4 type  1   force =    -0.16578781    0.00000013   -0.00000000
     atom    5 type  2   force =    -3.45677002   -0.01682331   -1.93389487
     atom    6 type  2   force =    -3.45677129   -0.01684208   -1.93388149
     atom    7 type  2   force =    -3.43484700    0.42635911   -1.58899204
     atom    8 type  2   force =    -3.43485188    0.42636857   -1.58900284
     atom    9 type  2   force =     1.95081743   -2.83572852    1.65269365
     atom   10 type  2   force =     1.95080868   -2.83573675    1.65268038
     atom   11 type  2   force =     1.96056657   -3.03012299    1.77618169
     atom   12 type  2   force =     1.96055416   -3.03015301    1.77615115
     atom   13 type  1   force =     0.04776622    0.10301267   -0.10800250
     atom   14 type  1   force =     0.04775770    0.10301370   -0.10801115
     atom   15 type  1   force =     0.04013966   -0.15834677    0.02739246
     atom   16 type  1   force =     0.04016159   -0.15833723    0.02738480
     atom   17 type  2   force =     1.50572927   -3.08887349   -1.64514152
     atom   18 type  2   force =     1.50569027   -3.08888032   -1.64517151
     atom   19 type  2   force =     1.46510925   -3.33725110   -1.60718357
     atom   20 type  2   force =     1.46507920   -3.33725062   -1.60720590
     atom   21 type  2   force =     1.50572937    3.08887366    1.64514130
     atom   22 type  2   force =     1.50569037    3.08888049    1.64517128
     atom   23 type  2   force =     1.46510932    3.33725110    1.60718352
     atom   24 type  2   force =     1.46507927    3.33725062    1.60720585
     atom   25 type  1   force =     0.04776635   -0.10301292    0.10800245
     atom   26 type  1   force =     0.04775783   -0.10301395    0.10801111
     atom   27 type  1   force =     0.04013982    0.15834678   -0.02739271
     atom   28 type  1   force =     0.04016174    0.15833724   -0.02738504
     atom   29 type  2   force =     1.95081731    2.83572840   -1.65269360
     atom   30 type  2   force =     1.95080857    2.83573663   -1.65268033
     atom   31 type  2   force =     1.96056654    3.03012352   -1.77618165
     atom   32 type  2   force =     1.96055412    3.03015354   -1.77615111
     atom   33 type  2   force =    -3.45676944    0.01682247    1.93389563
     atom   34 type  2   force =    -3.45677071    0.01684124    1.93388225
     atom   35 type  2   force =    -3.43484693   -0.42635892    1.58899200
     atom   36 type  2   force =    -3.43485182   -0.42636838    1.58900280
     The local contribution  to forces
     atom    1 type  1   force =    -0.01373939   -0.00000000    0.00000000
     atom    2 type  1   force =    -0.01375218    0.00000000    0.00000000
     atom    3 type  1   force =     0.19336534   -0.00000000   -0.00000000
     atom    4 type  1   force =     0.19338635   -0.00000000    0.00000000
     atom    5 type  2   force =     2.64612862   -0.07786429    1.37109654
     atom    6 type  2   force =     2.64613517   -0.07784791    1.37108637
     atom    7 type  2   force =     2.64205484   -0.46046076    1.14184582
     atom    8 type  2   force =     2.64205851   -0.46046918    1.14185625
     atom    9 type  2   force =    -1.58375412    2.08546728   -1.13334424
     atom   10 type  2   force =    -1.58374534    2.08547597   -1.13333262
     atom   11 type  2   force =    -1.60392408    2.29017341   -1.26268634
     atom   12 type  2   force =    -1.60390848    2.29019930   -1.26265972
     atom   13 type  1   force =    -0.05198662   -0.10181246    0.12195458
     atom   14 type  1   force =    -0.05197797   -0.10181320    0.12196447
     atom   15 type  1   force =    -0.04581867    0.16307948   -0.02922810
     atom   16 type  1   force =    -0.04584268    0.16306827   -0.02921921
     atom   17 type  2   force =    -1.07717303    2.35873538    1.19177866
     atom   18 type  2   force =    -1.07713436    2.35874082    1.19180458
     atom   19 type  2   force =    -1.02377610    2.66581037    1.13169824
     atom   20 type  2   force =    -1.02374868    2.66581042    1.13171809
     atom   21 type  2   force =    -1.07717306   -2.35874427   -1.19177851
     atom   22 type  2   force =    -1.07713440   -2.35874971   -1.19180444
     atom   23 type  2   force =    -1.02377610   -2.66581037   -1.13169824
     atom   24 type  2   force =    -1.02374868   -2.66581042   -1.13171809
     atom   25 type  1   force =    -0.05198662    0.10181246   -0.12195458
     atom   26 type  1   force =    -0.05197797    0.10181320   -0.12196447
     atom   27 type  1   force =    -0.04581867   -0.16307948    0.02922810
     atom   28 type  1   force =    -0.04584268   -0.16306827    0.02921921
     atom   29 type  2   force =    -1.58375412   -2.08546728    1.13334424
     atom   30 type  2   force =    -1.58374534   -2.08547597    1.13333262
     atom   31 type  2   force =    -1.60392408   -2.29017341    1.26268634
     atom   32 type  2   force =    -1.60390848   -2.29019930    1.26265972
     atom   33 type  2   force =     2.64612820    0.07785613   -1.37109715
     atom   34 type  2   force =     2.64613475    0.07783975   -1.37108698
     atom   35 type  2   force =     2.64205484    0.46046076   -1.14184582
     atom   36 type  2   force =     2.64205851    0.46046918   -1.14185625
     The core correction contribution to forces
     atom    1 type  1   force =    -0.00108872    0.00000000   -0.00000000
     atom    2 type  1   force =    -0.00108940    0.00000000   -0.00000000
     atom    3 type  1   force =     0.00321010    0.00000000   -0.00000000
     atom    4 type  1   force =     0.00321101    0.00000000   -0.00000000
     atom    5 type  2   force =    -0.01218899   -0.00242400   -0.01534275
     atom    6 type  2   force =    -0.01218893   -0.00242384   -0.01534280
     atom    7 type  2   force =    -0.01241742   -0.00169948   -0.00664058
     atom    8 type  2   force =    -0.01241738   -0.00169939   -0.00664051
     atom    9 type  2   force =     0.00328955   -0.01448609    0.01240118
     atom   10 type  2   force =     0.00328948   -0.01448615    0.01240129
     atom   11 type  2   force =     0.00492767   -0.01010423    0.01161081
     atom   12 type  2   force =     0.00492769   -0.01010435    0.01161119
     atom   13 type  1   force =    -0.00044008   -0.00010727    0.00187535
     atom   14 type  1   force =    -0.00043977   -0.00010727    0.00187575
     atom   15 type  1   force =    -0.00046680    0.00012476   -0.00010379
     atom   16 type  1   force =    -0.00046805    0.00012430   -0.00010352
     atom   17 type  2   force =     0.00761722   -0.01176382   -0.00697373
     atom   18 type  2   force =     0.00761761   -0.01176393   -0.00697344
     atom   19 type  2   force =     0.00703514   -0.00802684   -0.00984970
     atom   20 type  2   force =     0.00703537   -0.00802677   -0.00984949
     atom   21 type  2   force =     0.00761722    0.01176390    0.00697372
     atom   22 type  2   force =     0.00761761    0.01176400    0.00697344
     atom   23 type  2   force =     0.00703514    0.00802684    0.00984971
     atom   24 type  2   force =     0.00703536    0.00802677    0.00984949
     atom   25 type  1   force =    -0.00044008    0.00010727   -0.00187535
     atom   26 type  1   force =    -0.00043977    0.00010727   -0.00187575
     atom   27 type  1   force =    -0.00046680   -0.00012476    0.00010379
     atom   28 type  1   force =    -0.00046805   -0.00012430    0.00010352
     atom   29 type  2   force =     0.00328955    0.01448608   -0.01240118
     atom   30 type  2   force =     0.00328948    0.01448615   -0.01240129
     atom   31 type  2   force =     0.00492767    0.01010422   -0.01161081
     atom   32 type  2   force =     0.00492769    0.01010435   -0.01161119
     atom   33 type  2   force =    -0.01218898    0.00242411    0.01534276
     atom   34 type  2   force =    -0.01218892    0.00242394    0.01534281
     atom   35 type  2   force =    -0.01241742    0.00169948    0.00664058
     atom   36 type  2   force =    -0.01241738    0.00169938    0.00664051
     The Hubbard contrib.    to forces
     atom    1 type  1   force =     0.00000000    0.00000000    0.00000000
     atom    2 type  1   force =     0.00000000    0.00000000    0.00000000
     atom    3 type  1   force =     0.00000000    0.00000000    0.00000000
     atom    4 type  1   force =     0.00000000    0.00000000    0.00000000
     atom    5 type  2   force =     0.00000000    0.00000000    0.00000000
     atom    6 type  2   force =     0.00000000    0.00000000    0.00000000
     atom    7 type  2   force =     0.00000000    0.00000000    0.00000000
     atom    8 type  2   force =     0.00000000    0.00000000    0.00000000
     atom    9 type  2   force =     0.00000000    0.00000000    0.00000000
     atom   10 type  2   force =     0.00000000    0.00000000    0.00000000
     atom   11 type  2   force =     0.00000000    0.00000000    0.00000000
     atom   12 type  2   force =     0.00000000    0.00000000    0.00000000
     atom   13 type  1   force =     0.00000000    0.00000000    0.00000000
     atom   14 type  1   force =     0.00000000    0.00000000    0.00000000
     atom   15 type  1   force =     0.00000000    0.00000000    0.00000000
     atom   16 type  1   force =     0.00000000    0.00000000    0.00000000
     atom   17 type  2   force =     0.00000000    0.00000000    0.00000000
     atom   18 type  2   force =     0.00000000    0.00000000    0.00000000
     atom   19 type  2   force =     0.00000000    0.00000000    0.00000000
     atom   20 type  2   force =     0.00000000    0.00000000    0.00000000
     atom   21 type  2   force =     0.00000000    0.00000000    0.00000000
     atom   22 type  2   force =     0.00000000    0.00000000    0.00000000
     atom   23 type  2   force =     0.00000000    0.00000000    0.00000000
     atom   24 type  2   force =     0.00000000    0.00000000    0.00000000
     atom   25 type  1   force =     0.00000000    0.00000000    0.00000000
     atom   26 type  1   force =     0.00000000    0.00000000    0.00000000
     atom   27 type  1   force =     0.00000000    0.00000000    0.00000000
     atom   28 type  1   force =     0.00000000    0.00000000    0.00000000
     atom   29 type  2   force =     0.00000000    0.00000000    0.00000000
     atom   30 type  2   force =     0.00000000    0.00000000    0.00000000
     atom   31 type  2   force =     0.00000000    0.00000000    0.00000000
     atom   32 type  2   force =     0.00000000    0.00000000    0.00000000
     atom   33 type  2   force =     0.00000000    0.00000000    0.00000000
     atom   34 type  2   force =     0.00000000    0.00000000    0.00000000
     atom   35 type  2   force =     0.00000000    0.00000000    0.00000000
     atom   36 type  2   force =     0.00000000    0.00000000    0.00000000
     The SCF correction term to forces
     atom    1 type  1   force =     0.00000014   -0.00000000   -0.00000000
     atom    2 type  1   force =     0.00000019   -0.00000000   -0.00000000
     atom    3 type  1   force =    -0.00000058    0.00000000   -0.00000000
     atom    4 type  1   force =    -0.00000117    0.00000000   -0.00000000
     atom    5 type  2   force =    -0.00000111    0.00000072   -0.00000059
     atom    6 type  2   force =    -0.00000089    0.00000047   -0.00000067
     atom    7 type  2   force =    -0.00000156    0.00000131   -0.00000103
     atom    8 type  2   force =    -0.00000212    0.00000152   -0.00000114
     atom    9 type  2   force =     0.00000180   -0.00000010    0.00000112
     atom   10 type  2   force =     0.00000187   -0.00000017    0.00000129
     atom   11 type  2   force =     0.00000095   -0.00000081    0.00000080
     atom   12 type  2   force =     0.00000169   -0.00000069    0.00000083
     atom   13 type  1   force =     0.00000058    0.00000007    0.00000004
     atom   14 type  1   force =     0.00000028    0.00000015   -0.00000015
     atom   15 type  1   force =    -0.00000018   -0.00000038    0.00000059
     atom   16 type  1   force =     0.00000008   -0.00000028    0.00000054
     atom   17 type  2   force =    -0.00000080   -0.00000198   -0.00000122
     atom   18 type  2   force =    -0.00000014   -0.00000190   -0.00000121
     atom   19 type  2   force =    -0.00000013   -0.00000175   -0.00000053
     atom   20 type  2   force =    -0.00000013   -0.00000183   -0.00000064
     atom   21 type  2   force =    -0.00000080    0.00000198    0.00000122
     atom   22 type  2   force =    -0.00000014    0.00000190    0.00000121
     atom   23 type  2   force =    -0.00000013    0.00000175    0.00000053
     atom   24 type  2   force =    -0.00000013    0.00000183    0.00000064
     atom   25 type  1   force =     0.00000058   -0.00000007   -0.00000004
     atom   26 type  1   force =     0.00000028   -0.00000015    0.00000015
     atom   27 type  1   force =    -0.00000018    0.00000038   -0.00000059
     atom   28 type  1   force =     0.00000008    0.00000028   -0.00000054
     atom   29 type  2   force =     0.00000180    0.00000010   -0.00000112
     atom   30 type  2   force =     0.00000187    0.00000017   -0.00000129
     atom   31 type  2   force =     0.00000095    0.00000081   -0.00000080
     atom   32 type  2   force =     0.00000169    0.00000069   -0.00000083
     atom   33 type  2   force =    -0.00000111   -0.00000072    0.00000059
     atom   34 type  2   force =    -0.00000089   -0.00000047    0.00000067
     atom   35 type  2   force =    -0.00000156   -0.00000131    0.00000103
     atom   36 type  2   force =    -0.00000212   -0.00000152    0.00000114

     Total force =     0.000080     Total SCF correction =     0.000010
     SCF correction compared to forces is large: reduce conv_thr to get better values

     Writing output data file ./SiO2_OR_36_2.save/

     General routines

     Parallel routines

   This run was terminated on:  19:37:46  21Jun2021

   JOB DONE.