     Program PWSCF v.6.6 starts on 19Mar2021 at 21:26:34

     R & G space division:  proc/nbgrp/npool/nimage =      96
     wavefunctions fft division:  Y-proc x Z-proc =       2     48
     wavefunctions fft division:  task group distribution
                                  #TG    x Z-proc =       2     48
     Fft bands division:     nmany     =       1
     Reading input from input_quarzo_576
Warning: card &CELL ignored
Warning: card / ignored

     Current dimensions of program PWSCF are:
     Max number of different atomic species (ntypx) = 10
     Max number of k-points (npk) =  40000
     Max angular momentum in pseudopotentials (lmaxx) =  3

     Subspace diagonalization in iterative solution of the eigenvalue problem:
     one sub-group per band group will be used

     Found symmetry operation: I + (  0.0000 -0.5000  0.0000)
     This is a supercell, fractional translations are disabled

     bravais-lattice index     =            8
     lattice parameter (alat)  =      37.1445  a.u.
     unit-cell volume          =   48817.2967 (a.u.)^3
     number of atoms/cell      =          576
     number of atomic types    =            2
     number of electrons       =      3072.00
     number of Kohn-Sham states=         1536
     kinetic-energy cutoff     =      40.0000  Ry
     charge density cutoff     =     320.0000  Ry
     convergence threshold     =      1.0E-10
     mixing beta               =       0.7000
     number of iterations used =            8  plain     mixing
     Exchange-correlation= PBESOL
                           (   1   4  10   8   0   0   0)

     celldm(1)=  37.144472  celldm(2)=   0.866025  celldm(3)=   1.099919
     celldm(4)=   0.000000  celldm(5)=   0.000000  celldm(6)=   0.000000

     crystal axes: (cart. coord. in units of alat)
               a(1) = (   1.000000   0.000000   0.000000 )
               a(2) = (   0.000000   0.866025   0.000000 )
               a(3) = (   0.000000   0.000000   1.099919 )

     reciprocal axes: (cart. coord. in units 2 pi/alat)
               b(1) = (  1.000000  0.000000  0.000000 )
               b(2) = (  0.000000  1.154701  0.000000 )
               b(3) = (  0.000000  0.000000  0.909158 )

     PseudoPot. # 1 for Si read from file:
     ./Si.pbesol-n-rrkjus_psl.0.1.UPF
     MD5 check sum: 84986bd6be9e79932892c86d18f23292
     Pseudo is Ultrasoft + core correction, Zval =  4.0
     Generated using "atomic" code by A. Dal Corso v.5.0.2 svn rev. 9415
     Using radial grid of 1141 points,  4 beta functions with:
                l(1) =   0
                l(2) =   0
                l(3) =   1
                l(4) =   1
     Q(r) pseudized with 0 coefficients

     PseudoPot. # 2 for O  read from file:
     ./O.pbesol-n-rrkjus_psl.0.1.UPF
     MD5 check sum: 82ba247c1b02f01b1b66dbedee2f956c
     Pseudo is Ultrasoft + core correction, Zval =  6.0
     Generated using "atomic" code by A. Dal Corso v.5.0.2 svn rev. 9415
     Using radial grid of 1095 points,  4 beta functions with:
                l(1) =   0
                l(2) =   0
                l(3) =   1
                l(4) =   1
     Q(r) pseudized with 0 coefficients

     atomic species   valence    mass     pseudopotential
        Si             4.00    47.86700     Si( 1.00)
        O              6.00    15.99940     O ( 1.00)

      2 Sym. Ops. (no inversion) found

                                    s                        frac. trans.

      isym =  1     identity

 cryst.   s( 1) = (     1          0          0      )
                  (     0          1          0      )
                  (     0          0          1      )

 cart.    s( 1) = (  1.0000000  0.0000000  0.0000000 )
                  (  0.0000000  1.0000000  0.0000000 )
                  (  0.0000000  0.0000000  1.0000000 )

      isym =  2     180 deg rotation - cart. axis [1,0,0]

 cryst.   s( 2) = (     1          0          0      )
                  (     0         -1          0      )
                  (     0          0         -1      )

 cart.    s( 2) = (  1.0000000  0.0000000  0.0000000 )
                  (  0.0000000 -1.0000000  0.0000000 )
                  (  0.0000000  0.0000000 -1.0000000 )

     point group C_2  (2)
     there are  2 classes
     the character table:

       E     C2
A      1.00  1.00
B      1.00 -1.00

     the symmetry operations in each class and the name of the first element:

     E        1
          identity
     C2       2
          180 deg rotation - cart. axis [1,0,0]

   Cartesian axes

     site n.     atom                  positions (alat units)
         1           Si  tau(   1) = (   0.1172837   0.0000000   0.0000000  )
         2           Si  tau(   2) = (   0.1172837   0.4330127   0.0000000  )
         3           Si  tau(   3) = (   0.3672837   0.0000000   0.0000000  )
         4           Si  tau(   4) = (   0.3672837   0.4330127   0.0000000  )
         5           Si  tau(   5) = (   0.6172837   0.0000000   0.0000000  )
         6           Si  tau(   6) = (   0.6172837   0.4330127   0.0000000  )
         7           Si  tau(   7) = (   0.8672837   0.0000000   0.0000000  )
         8           Si  tau(   8) = (   0.8672837   0.4330127   0.0000000  )
         9           Si  tau(   9) = (   0.2422837   0.2165063   0.0000000  )
        10           Si  tau(  10) = (   0.2422837   0.6495190   0.0000000  )
        11           Si  tau(  11) = (   0.4922837   0.2165063   0.0000000  )
        12           Si  tau(  12) = (   0.4922837   0.6495190   0.0000000  )
        13           Si  tau(  13) = (   0.7422837   0.2165063   0.0000000  )
        14           Si  tau(  14) = (   0.7422837   0.6495190   0.0000000  )
        15           Si  tau(  15) = (   0.9922837   0.2165063   0.0000000  )
        16           Si  tau(  16) = (   0.9922837   0.6495190   0.0000000  )
        17           O   tau(  17) = (   0.0696567   0.3743553   0.0318126  )
        18           O   tau(  18) = (   0.0696567   0.8073680   0.0318126  )
        19           O   tau(  19) = (   0.3196567   0.3743553   0.0318126  )
        20           O   tau(  20) = (   0.3196567   0.8073680   0.0318126  )
        21           O   tau(  21) = (   0.5696567   0.3743553   0.0318126  )
        22           O   tau(  22) = (   0.5696567   0.8073680   0.0318126  )
        23           O   tau(  23) = (   0.8196567   0.3743553   0.0318126  )
        24           O   tau(  24) = (   0.8196567   0.8073680   0.0318126  )
        25           O   tau(  25) = (   0.1946567   0.1578489   0.0318126  )
        26           O   tau(  26) = (   0.1946567   0.5908616   0.0318126  )
        27           O   tau(  27) = (   0.4446567   0.1578489   0.0318126  )
        28           O   tau(  28) = (   0.4446567   0.5908616   0.0318126  )
        29           O   tau(  29) = (   0.6946567   0.1578489   0.0318126  )
        30           O   tau(  30) = (   0.6946567   0.5908616   0.0318126  )
        31           O   tau(  31) = (   0.9446567   0.1578489   0.0318126  )
        32           O   tau(  32) = (   0.9446567   0.5908616   0.0318126  )
        33           O   tau(  33) = (   0.1643728   0.0309958   0.0598473  )
        34           O   tau(  34) = (   0.1643728   0.4640085   0.0598473  )
        35           O   tau(  35) = (   0.4143728   0.0309958   0.0598473  )
        36           O   tau(  36) = (   0.4143728   0.4640085   0.0598473  )
        37           O   tau(  37) = (   0.6643728   0.0309958   0.0598473  )
        38           O   tau(  38) = (   0.6643728   0.4640085   0.0598473  )
        39           O   tau(  39) = (   0.9143728   0.0309958   0.0598473  )
        40           O   tau(  40) = (   0.9143728   0.4640085   0.0598473  )
        41           O   tau(  41) = (   0.0393728   0.2475022   0.0598473  )
        42           O   tau(  42) = (   0.0393728   0.6805149   0.0598473  )
        43           O   tau(  43) = (   0.2893728   0.2475022   0.0598473  )
        44           O   tau(  44) = (   0.2893728   0.6805149   0.0598473  )
        45           O   tau(  45) = (   0.5393728   0.2475022   0.0598473  )
        46           O   tau(  46) = (   0.5393728   0.6805149   0.0598473  )
        47           O   tau(  47) = (   0.7893728   0.2475022   0.0598473  )
        48           O   tau(  48) = (   0.7893728   0.6805149   0.0598473  )
        49           Si  tau(  49) = (   0.1913582   0.1015707   0.0916599  )
        50           Si  tau(  50) = (   0.1913582   0.5345834   0.0916599  )
        51           Si  tau(  51) = (   0.4413582   0.1015707   0.0916599  )
        52           Si  tau(  52) = (   0.4413582   0.5345834   0.0916599  )
        53           Si  tau(  53) = (   0.6913582   0.1015707   0.0916599  )
        54           Si  tau(  54) = (   0.6913582   0.5345834   0.0916599  )
        55           Si  tau(  55) = (   0.9413582   0.1015707   0.0916599  )
        56           Si  tau(  56) = (   0.9413582   0.5345834   0.0916599  )
        57           Si  tau(  57) = (   0.0663582   0.3180770   0.0916599  )
        58           Si  tau(  58) = (   0.0663582   0.7510897   0.0916599  )
        59           Si  tau(  59) = (   0.3163582   0.3180770   0.0916599  )
        60           Si  tau(  60) = (   0.3163582   0.7510897   0.0916599  )
[...]
       562           O   tau( 562) = (   0.0696567   0.4916701   1.0681060  )
       563           O   tau( 563) = (   0.3196567   0.0586574   1.0681060  )
       564           O   tau( 564) = (   0.3196567   0.4916701   1.0681060  )
       565           O   tau( 565) = (   0.5696567   0.0586574   1.0681060  )
       566           O   tau( 566) = (   0.5696567   0.4916701   1.0681060  )
       567           O   tau( 567) = (   0.8196567   0.0586574   1.0681060  )
       568           O   tau( 568) = (   0.8196567   0.4916701   1.0681060  )
       569           O   tau( 569) = (   0.1946567   0.2751638   1.0681060  )
       570           O   tau( 570) = (   0.1946567   0.7081765   1.0681060  )
       571           O   tau( 571) = (   0.4446567   0.2751638   1.0681060  )
       572           O   tau( 572) = (   0.4446567   0.7081765   1.0681060  )
       573           O   tau( 573) = (   0.6946567   0.2751638   1.0681060  )
       574           O   tau( 574) = (   0.6946567   0.7081765   1.0681060  )
       575           O   tau( 575) = (   0.9446567   0.2751638   1.0681060  )
       576           O   tau( 576) = (   0.9446567   0.7081765   1.0681060  )

   Crystallographic axes

     site n.     atom                  positions (cryst. coord.)
         1           Si  tau(   1) = (  0.1172837  0.0000000  0.0000000  )
         2           Si  tau(   2) = (  0.1172837  0.5000000  0.0000000  )
         3           Si  tau(   3) = (  0.3672837  0.0000000  0.0000000  )
         4           Si  tau(   4) = (  0.3672837  0.5000000  0.0000000  )
         5           Si  tau(   5) = (  0.6172837  0.0000000  0.0000000  )
         6           Si  tau(   6) = (  0.6172837  0.5000000  0.0000000  )
         7           Si  tau(   7) = (  0.8672837  0.0000000  0.0000000  )
         8           Si  tau(   8) = (  0.8672837  0.5000000  0.0000000  )
         9           Si  tau(   9) = (  0.2422837  0.2500000  0.0000000  )
[...]
     atom   10 type  1   force =     0.00006491    0.00000000   -0.00000001
     atom   11 type  1   force =     0.00006489    0.00000001   -0.00000002
     atom   12 type  1   force =     0.00006489   -0.00000001    0.00000002
     atom   13 type  1   force =     0.00006489    0.00000001   -0.00000002
     atom   14 type  1   force =     0.00006489   -0.00000001    0.00000002
     atom   15 type  1   force =     0.00006489    0.00000002   -0.00000000
     atom   16 type  1   force =     0.00006489   -0.00000002    0.00000000
     atom   17 type  2   force =    -0.01665619   -0.00100349   -0.00965061
     atom   18 type  2   force =    -0.01665618   -0.00100358   -0.00965063
     atom   19 type  2   force =    -0.01665618   -0.00100349   -0.00965061
     atom   20 type  2   force =    -0.01665617   -0.00100358   -0.00965062
     atom   21 type  2   force =    -0.01665619   -0.00100348   -0.00965061
     atom   22 type  2   force =    -0.01665618   -0.00100358   -0.00965063
     atom   23 type  2   force =    -0.01665619   -0.00100348   -0.00965061
     atom   24 type  2   force =    -0.01665618   -0.00100358   -0.00965063
     atom   25 type  2   force =    -0.01665619   -0.00100349   -0.00965061
     atom   26 type  2   force =    -0.01665618   -0.00100358   -0.00965063
     atom   27 type  2   force =    -0.01665619   -0.00100349   -0.00965061
     atom   28 type  2   force =    -0.01665617   -0.00100358   -0.00965063
     atom   29 type  2   force =    -0.01665619   -0.00100349   -0.00965061
     atom   30 type  2   force =    -0.01665618   -0.00100358   -0.00965063
     atom   31 type  2   force =    -0.01665619   -0.00100349   -0.00965060
     atom   32 type  2   force =    -0.01665617   -0.00100358   -0.00965063
     atom   33 type  2   force =     0.00730227   -0.01382993    0.00980900
     atom   34 type  2   force =     0.00730227   -0.01382993    0.00980900
     atom   35 type  2   force =     0.00730227   -0.01382993    0.00980900
     atom   36 type  2   force =     0.00730227   -0.01382993    0.00980900
     atom   37 type  2   force =     0.00730227   -0.01382993    0.00980899
     atom   38 type  2   force =     0.00730227   -0.01382993    0.00980899
     atom   39 type  2   force =     0.00730227   -0.01382993    0.00980899
     atom   40 type  2   force =     0.00730227   -0.01382994    0.00980900
     atom   41 type  2   force =     0.00730227   -0.01382993    0.00980899
     atom   42 type  2   force =     0.00730227   -0.01382993    0.00980899
     atom   43 type  2   force =     0.00730227   -0.01382993    0.00980899
     atom   44 type  2   force =     0.00730227   -0.01382993    0.00980899
     atom   45 type  2   force =     0.00730227   -0.01382993    0.00980899
     atom   46 type  2   force =     0.00730227   -0.01382993    0.00980900
     atom   47 type  2   force =     0.00730227   -0.01382993    0.00980900
     atom   48 type  2   force =     0.00730227   -0.01382993    0.00980900
     atom   49 type  1   force =    -0.00002616    0.00005439   -0.00000783
     atom   50 type  1   force =    -0.00002615    0.00005437   -0.00000777
     atom   51 type  1   force =    -0.00002618    0.00005440   -0.00000781
     atom   52 type  1   force =    -0.00002617    0.00005438   -0.00000781
     atom   53 type  1   force =    -0.00002618    0.00005439   -0.00000782
     atom   54 type  1   force =    -0.00002618    0.00005439   -0.00000780
     atom   55 type  1   force =    -0.00002617    0.00005439   -0.00000781
     atom   56 type  1   force =    -0.00002618    0.00005440   -0.00000778
     atom   57 type  1   force =    -0.00002617    0.00005439   -0.00000782
     atom   58 type  1   force =    -0.00002617    0.00005440   -0.00000779
     atom   59 type  1   force =    -0.00002617    0.00005438   -0.00000782
     atom   60 type  1   force =    -0.00002617    0.00005438   -0.00000780
[...]
     atom  562 type  2   force =    -0.01665617    0.00100366    0.00965065
     atom  563 type  2   force =    -0.01665617    0.00100358    0.00965062
     atom  564 type  2   force =    -0.01665616    0.00100366    0.00965065
     atom  565 type  2   force =    -0.01665618    0.00100358    0.00965063
     atom  566 type  2   force =    -0.01665616    0.00100366    0.00965065
     atom  567 type  2   force =    -0.01665618    0.00100358    0.00965063
     atom  568 type  2   force =    -0.01665616    0.00100366    0.00965065
     atom  569 type  2   force =    -0.01665618    0.00100358    0.00965063
     atom  570 type  2   force =    -0.01665616    0.00100366    0.00965065
     atom  571 type  2   force =    -0.01665617    0.00100358    0.00965063
     atom  572 type  2   force =    -0.01665616    0.00100366    0.00965065
     atom  573 type  2   force =    -0.01665618    0.00100358    0.00965063
     atom  574 type  2   force =    -0.01665617    0.00100366    0.00965065
     atom  575 type  2   force =    -0.01665617    0.00100358    0.00965063
     atom  576 type  2   force =    -0.01665617    0.00100366    0.00965064
     The Hubbard contrib.    to forces
     atom    1 type  1   force =     0.00000000    0.00000000    0.00000000
     atom    2 type  1   force =     0.00000000    0.00000000    0.00000000
     atom    3 type  1   force =     0.00000000    0.00000000    0.00000000
     atom    4 type  1   force =     0.00000000    0.00000000    0.00000000
     atom    5 type  1   force =     0.00000000    0.00000000    0.00000000
     atom    6 type  1   force =     0.00000000    0.00000000    0.00000000
     atom    7 type  1   force =     0.00000000    0.00000000    0.00000000
     atom    8 type  1   force =     0.00000000    0.00000000    0.00000000
     atom    9 type  1   force =     0.00000000    0.00000000    0.00000000
     atom   10 type  1   force =     0.00000000    0.00000000    0.00000000
     atom   11 type  1   force =     0.00000000    0.00000000    0.00000000
     atom   12 type  1   force =     0.00000000    0.00000000    0.00000000
     atom   13 type  1   force =     0.00000000    0.00000000    0.00000000
     atom   14 type  1   force =     0.00000000    0.00000000    0.00000000
     atom   15 type  1   force =     0.00000000    0.00000000    0.00000000
     atom   16 type  1   force =     0.00000000    0.00000000    0.00000000
     atom   17 type  2   force =     0.00000000    0.00000000    0.00000000
     atom   18 type  2   force =     0.00000000    0.00000000    0.00000000
     atom   19 type  2   force =     0.00000000    0.00000000    0.00000000
     atom   20 type  2   force =     0.00000000    0.00000000    0.00000000
     atom   21 type  2   force =     0.00000000    0.00000000    0.00000000
     atom   22 type  2   force =     0.00000000    0.00000000    0.00000000
     atom   23 type  2   force =     0.00000000    0.00000000    0.00000000
     atom   24 type  2   force =     0.00000000    0.00000000    0.00000000
     atom   25 type  2   force =     0.00000000    0.00000000    0.00000000
     atom   26 type  2   force =     0.00000000    0.00000000    0.00000000
     atom   27 type  2   force =     0.00000000    0.00000000    0.00000000
     atom   28 type  2   force =     0.00000000    0.00000000    0.00000000
     atom   29 type  2   force =     0.00000000    0.00000000    0.00000000
     atom   30 type  2   force =     0.00000000    0.00000000    0.00000000
     atom   31 type  2   force =     0.00000000    0.00000000    0.00000000
     atom   32 type  2   force =     0.00000000    0.00000000    0.00000000
     atom   33 type  2   force =     0.00000000    0.00000000    0.00000000
     atom   34 type  2   force =     0.00000000    0.00000000    0.00000000
     atom   35 type  2   force =     0.00000000    0.00000000    0.00000000
     atom   36 type  2   force =     0.00000000    0.00000000    0.00000000
     atom   37 type  2   force =     0.00000000    0.00000000    0.00000000
     atom   38 type  2   force =     0.00000000    0.00000000    0.00000000
     atom   39 type  2   force =     0.00000000    0.00000000    0.00000000
     atom   40 type  2   force =     0.00000000    0.00000000    0.00000000
     atom   41 type  2   force =     0.00000000    0.00000000    0.00000000
     atom   42 type  2   force =     0.00000000    0.00000000    0.00000000
     atom   43 type  2   force =     0.00000000    0.00000000    0.00000000
     atom   44 type  2   force =     0.00000000    0.00000000    0.00000000
     atom   45 type  2   force =     0.00000000    0.00000000    0.00000000
     atom   46 type  2   force =     0.00000000    0.00000000    0.00000000
     atom   47 type  2   force =     0.00000000    0.00000000    0.00000000
     atom   48 type  2   force =     0.00000000    0.00000000    0.00000000
     atom   49 type  1   force =     0.00000000    0.00000000    0.00000000
     atom   50 type  1   force =     0.00000000    0.00000000    0.00000000
     atom   51 type  1   force =     0.00000000    0.00000000    0.00000000
     atom   52 type  1   force =     0.00000000    0.00000000    0.00000000
     atom   53 type  1   force =     0.00000000    0.00000000    0.00000000
     atom   54 type  1   force =     0.00000000    0.00000000    0.00000000
     atom   55 type  1   force =     0.00000000    0.00000000    0.00000000
     atom   56 type  1   force =     0.00000000    0.00000000    0.00000000
     atom   57 type  1   force =     0.00000000    0.00000000    0.00000000
     atom   58 type  1   force =     0.00000000    0.00000000    0.00000000
     atom   59 type  1   force =     0.00000000    0.00000000    0.00000000
     atom   60 type  1   force =     0.00000000    0.00000000    0.00000000
[...]
     atom  562 type  2   force =     0.00000000    0.00000000    0.00000000
     atom  563 type  2   force =     0.00000000    0.00000000    0.00000000
     atom  564 type  2   force =     0.00000000    0.00000000    0.00000000
     atom  565 type  2   force =     0.00000000    0.00000000    0.00000000
     atom  566 type  2   force =     0.00000000    0.00000000    0.00000000
     atom  567 type  2   force =     0.00000000    0.00000000    0.00000000
     atom  568 type  2   force =     0.00000000    0.00000000    0.00000000
     atom  569 type  2   force =     0.00000000    0.00000000    0.00000000
     atom  570 type  2   force =     0.00000000    0.00000000    0.00000000
     atom  571 type  2   force =     0.00000000    0.00000000    0.00000000
     atom  572 type  2   force =     0.00000000    0.00000000    0.00000000
     atom  573 type  2   force =     0.00000000    0.00000000    0.00000000
     atom  574 type  2   force =     0.00000000    0.00000000    0.00000000
     atom  575 type  2   force =     0.00000000    0.00000000    0.00000000
     atom  576 type  2   force =     0.00000000    0.00000000    0.00000000
     The SCF correction term to forces
     atom    1 type  1   force =    -0.00000010    0.00000000    0.00000000
     atom    2 type  1   force =     0.00000024   -0.00000000   -0.00000000
     atom    3 type  1   force =    -0.00000000    0.00000000    0.00000000
     atom    4 type  1   force =     0.00000020   -0.00000000   -0.00000000
     atom    5 type  1   force =     0.00000043    0.00000000    0.00000000
     atom    6 type  1   force =    -0.00000001   -0.00000000   -0.00000000
     atom    7 type  1   force =     0.00000026    0.00000000    0.00000000
     atom    8 type  1   force =    -0.00000052   -0.00000000   -0.00000000
     atom    9 type  1   force =     0.00000044   -0.00000012    0.00000012
     atom   10 type  1   force =     0.00000044    0.00000012   -0.00000012
     atom   11 type  1   force =     0.00000006    0.00000004   -0.00000006
     atom   12 type  1   force =     0.00000006   -0.00000004    0.00000006
     atom   13 type  1   force =    -0.00000003    0.00000005   -0.00000018
     atom   14 type  1   force =    -0.00000003   -0.00000005    0.00000018
     atom   15 type  1   force =     0.00000001    0.00000000    0.00000012
     atom   16 type  1   force =     0.00000001   -0.00000000   -0.00000012
     atom   17 type  2   force =    -0.00000044   -0.00000019   -0.00000023
     atom   18 type  2   force =    -0.00000071   -0.00000008   -0.00000019
     atom   19 type  2   force =    -0.00000015    0.00000014   -0.00000041
     atom   20 type  2   force =    -0.00000055   -0.00000018   -0.00000021
     atom   21 type  2   force =     0.00000014    0.00000048   -0.00000036
     atom   22 type  2   force =     0.00000063    0.00000027    0.00000007
     atom   23 type  2   force =    -0.00000037    0.00000034   -0.00000052
     atom   24 type  2   force =     0.00000038    0.00000041   -0.00000009
     atom   25 type  2   force =     0.00000027    0.00000028   -0.00000013
     atom   26 type  2   force =     0.00000090    0.00000022    0.00000020
     atom   27 type  2   force =    -0.00000036    0.00000017    0.00000000
     atom   28 type  2   force =    -0.00000030   -0.00000018   -0.00000017
     atom   29 type  2   force =    -0.00000063    0.00000000   -0.00000037
     atom   30 type  2   force =    -0.00000060   -0.00000033   -0.00000008
     atom   31 type  2   force =     0.00000005    0.00000010   -0.00000013
     atom   32 type  2   force =    -0.00000052    0.00000025   -0.00000031
     atom   33 type  2   force =     0.00000025   -0.00000023    0.00000047
     atom   34 type  2   force =     0.00000072   -0.00000005    0.00000049
     atom   35 type  2   force =     0.00000031   -0.00000018    0.00000069
     atom   36 type  2   force =     0.00000018   -0.00000030    0.00000032
     atom   37 type  2   force =    -0.00000032   -0.00000080   -0.00000020
     atom   38 type  2   force =    -0.00000028   -0.00000040   -0.00000022
     atom   39 type  2   force =    -0.00000005   -0.00000064    0.00000002
     atom   40 type  2   force =    -0.00000057   -0.00000015   -0.00000022
     atom   41 type  2   force =    -0.00000010   -0.00000082    0.00000020
     atom   42 type  2   force =    -0.00000021   -0.00000016   -0.00000001
     atom   43 type  2   force =     0.00000002   -0.00000065   -0.00000006
     atom   44 type  2   force =    -0.00000012   -0.00000078   -0.00000008
     atom   45 type  2   force =     0.00000021   -0.00000019    0.00000029
     atom   46 type  2   force =     0.00000033   -0.00000048    0.00000034
     atom   47 type  2   force =     0.00000017   -0.00000023    0.00000035
     atom   48 type  2   force =     0.00000033   -0.00000043    0.00000059
     atom   49 type  1   force =     0.00000010   -0.00000011   -0.00000006
     atom   50 type  1   force =     0.00000045   -0.00000021    0.00000048
     atom   51 type  1   force =    -0.00000024    0.00000008    0.00000031
     atom   52 type  1   force =    -0.00000005   -0.00000021   -0.00000006
     atom   53 type  1   force =    -0.00000018   -0.00000007    0.00000006
     atom   54 type  1   force =    -0.00000018    0.00000009   -0.00000001
     atom   55 type  1   force =     0.00000005   -0.00000018    0.00000023
     atom   56 type  1   force =    -0.00000027    0.00000031    0.00000036
     atom   57 type  1   force =    -0.00000005   -0.00000031    0.00000012
     atom   58 type  1   force =    -0.00000014    0.00000019    0.00000016
     atom   59 type  1   force =     0.00000000   -0.00000021    0.00000000
     atom   60 type  1   force =    -0.00000010   -0.00000013   -0.00000005
[...]
     atom  562 type  2   force =    -0.00000044    0.00000019    0.00000023
     atom  563 type  2   force =    -0.00000055    0.00000018    0.00000021
     atom  564 type  2   force =    -0.00000015   -0.00000014    0.00000041
     atom  565 type  2   force =     0.00000063   -0.00000027   -0.00000007
     atom  566 type  2   force =     0.00000014   -0.00000048    0.00000036
     atom  567 type  2   force =     0.00000038   -0.00000041    0.00000009
     atom  568 type  2   force =    -0.00000037   -0.00000034    0.00000052
     atom  569 type  2   force =     0.00000090   -0.00000022   -0.00000020
     atom  570 type  2   force =     0.00000027   -0.00000028    0.00000013
     atom  571 type  2   force =    -0.00000030    0.00000018    0.00000017
     atom  572 type  2   force =    -0.00000036   -0.00000017   -0.00000000
     atom  573 type  2   force =    -0.00000060    0.00000033    0.00000008
     atom  574 type  2   force =    -0.00000063   -0.00000000    0.00000037
     atom  575 type  2   force =    -0.00000052   -0.00000025    0.00000031
     atom  576 type  2   force =     0.00000005   -0.00000010    0.00000013

     Total force =     0.114484     Total SCF correction =     0.000013

     Writing output data file ./SiO2_OR_576_us.save/

     General routines

     Parallel routines

   This run was terminated on:  21:33:46  19Mar2021

   JOB DONE.