     Program PWSCF v.6.6 starts on 20Mar2021 at  1:54:34

     R & G space division:  proc/nbgrp/npool/nimage =     768
     Fft bands division:     nmany     =       1
     Reading input from input_quarzo_2304
Warning: card &CELL ignored
Warning: card / ignored

     Current dimensions of program PWSCF are:
     Max number of different atomic species (ntypx) = 10
     Max number of k-points (npk) =  40000
     Max angular momentum in pseudopotentials (lmaxx) =  3

     Subspace diagonalization in iterative solution of the eigenvalue problem:
     one sub-group per band group will be used

     Found symmetry operation: I + (  0.0000  0.2500  0.0000)
     This is a supercell, fractional translations are disabled

     bravais-lattice index     =            8
     lattice parameter (alat)  =      37.1445  a.u.
     unit-cell volume          =  195269.1880 (a.u.)^3
     number of atoms/cell      =         2304
     number of atomic types    =            2
     number of electrons       =     12288.00
     number of Kohn-Sham states=         6144
     kinetic-energy cutoff     =      40.0000  Ry
     charge density cutoff     =     320.0000  Ry
     convergence threshold     =      1.0E-10
     mixing beta               =       0.7000
     number of iterations used =            8  plain     mixing
     Exchange-correlation= PBESOL
                           (   1   4  10   8   0   0   0)

     celldm(1)=  37.144472  celldm(2)=   1.732051  celldm(3)=   2.199837
     celldm(4)=   0.000000  celldm(5)=   0.000000  celldm(6)=   0.000000

     crystal axes: (cart. coord. in units of alat)
               a(1) = (   1.000000   0.000000   0.000000 )
               a(2) = (   0.000000   1.732051   0.000000 )
               a(3) = (   0.000000   0.000000   2.199837 )

     reciprocal axes: (cart. coord. in units 2 pi/alat)
               b(1) = (  1.000000  0.000000  0.000000 )
               b(2) = (  0.000000  0.577350  0.000000 )
               b(3) = (  0.000000  0.000000  0.454579 )

     PseudoPot. # 1 for Si read from file:
     ./Si.pbesol-n-rrkjus_psl.0.1.UPF
     MD5 check sum: 84986bd6be9e79932892c86d18f23292
     Pseudo is Ultrasoft + core correction, Zval =  4.0
     Generated using "atomic" code by A. Dal Corso v.5.0.2 svn rev. 9415
     Using radial grid of 1141 points,  4 beta functions with:
                l(1) =   0
                l(2) =   0
                l(3) =   1
                l(4) =   1
     Q(r) pseudized with 0 coefficients

     PseudoPot. # 2 for O  read from file:
     ./O.pbesol-n-rrkjus_psl.0.1.UPF
     MD5 check sum: 82ba247c1b02f01b1b66dbedee2f956c
     Pseudo is Ultrasoft + core correction, Zval =  6.0
     Generated using "atomic" code by A. Dal Corso v.5.0.2 svn rev. 9415
     Using radial grid of 1095 points,  4 beta functions with:
                l(1) =   0
                l(2) =   0
                l(3) =   1
                l(4) =   1
     Q(r) pseudized with 0 coefficients

     atomic species   valence    mass     pseudopotential
        Si             4.00    47.86700     Si( 1.00)
        O              6.00    15.99940     O ( 1.00)

      2 Sym. Ops. (no inversion) found

                                    s                        frac. trans.

      isym =  1     identity

 cryst.   s( 1) = (     1          0          0      )
                  (     0          1          0      )
                  (     0          0          1      )

 cart.    s( 1) = (  1.0000000  0.0000000  0.0000000 )
                  (  0.0000000  1.0000000  0.0000000 )
                  (  0.0000000  0.0000000  1.0000000 )

      isym =  2     180 deg rotation - cart. axis [1,0,0]

 cryst.   s( 2) = (     1          0          0      )
                  (     0         -1          0      )
                  (     0          0         -1      )

 cart.    s( 2) = (  1.0000000  0.0000000  0.0000000 )
                  (  0.0000000 -1.0000000  0.0000000 )
                  (  0.0000000  0.0000000 -1.0000000 )

     point group C_2  (2)
     there are  2 classes
     the character table:

       E     C2
A      1.00  1.00
B      1.00 -1.00

     the symmetry operations in each class and the name of the first element:

     E        1
          identity
     C2       2
          180 deg rotation - cart. axis [1,0,0]

   Cartesian axes

     site n.     atom                  positions (alat units)
         1           Si  tau(   1) = (   0.1172837   0.0000000   0.0000000  )
         2           Si  tau(   2) = (   0.1172837   0.4330127   0.0000000  )
         3           Si  tau(   3) = (   0.1172837   0.8660254   0.0000000  )
         4           Si  tau(   4) = (   0.1172837   1.2990381   0.0000000  )
         5           Si  tau(   5) = (   0.3672837   0.0000000   0.0000000  )
         6           Si  tau(   6) = (   0.3672837   0.4330127   0.0000000  )
         7           Si  tau(   7) = (   0.3672837   0.8660254   0.0000000  )
         8           Si  tau(   8) = (   0.3672837   1.2990381   0.0000000  )
         9           Si  tau(   9) = (   0.6172837   0.0000000   0.0000000  )
        10           Si  tau(  10) = (   0.6172837   0.4330127   0.0000000  )
        11           Si  tau(  11) = (   0.6172837   0.8660254   0.0000000  )
        12           Si  tau(  12) = (   0.6172837   1.2990381   0.0000000  )
        13           Si  tau(  13) = (   0.8672837   0.0000000   0.0000000  )
        14           Si  tau(  14) = (   0.8672837   0.4330127   0.0000000  )
        15           Si  tau(  15) = (   0.8672837   0.8660254   0.0000000  )
        16           Si  tau(  16) = (   0.8672837   1.2990381   0.0000000  )
        17           Si  tau(  17) = (   0.2422837   0.2165063   0.0000000  )
        18           Si  tau(  18) = (   0.2422837   0.6495190   0.0000000  )
        19           Si  tau(  19) = (   0.2422837   1.0825318   0.0000000  )
        20           Si  tau(  20) = (   0.2422837   1.5155445   0.0000000  )
        21           Si  tau(  21) = (   0.4922837   0.2165063   0.0000000  )
        22           Si  tau(  22) = (   0.4922837   0.6495190   0.0000000  )
        23           Si  tau(  23) = (   0.4922837   1.0825318   0.0000000  )
        24           Si  tau(  24) = (   0.4922837   1.5155445   0.0000000  )
        25           Si  tau(  25) = (   0.7422837   0.2165063   0.0000000  )
        26           Si  tau(  26) = (   0.7422837   0.6495190   0.0000000  )
        27           Si  tau(  27) = (   0.7422837   1.0825318   0.0000000  )
        28           Si  tau(  28) = (   0.7422837   1.5155445   0.0000000  )
        29           Si  tau(  29) = (   0.9922837   0.2165063   0.0000000  )
        30           Si  tau(  30) = (   0.9922837   0.6495190   0.0000000  )
        31           Si  tau(  31) = (   0.9922837   1.0825318   0.0000000  )
        32           Si  tau(  32) = (   0.9922837   1.5155445   0.0000000  )
        33           O   tau(  33) = (   0.0696567   0.3743553   0.0318126  )
        34           O   tau(  34) = (   0.0696567   0.8073680   0.0318126  )
        35           O   tau(  35) = (   0.0696567   1.2403807   0.0318126  )
        36           O   tau(  36) = (   0.0696567   1.6733934   0.0318126  )
        37           O   tau(  37) = (   0.3196567   0.3743553   0.0318126  )
        38           O   tau(  38) = (   0.3196567   0.8073680   0.0318126  )
        39           O   tau(  39) = (   0.3196567   1.2403807   0.0318126  )
        40           O   tau(  40) = (   0.3196567   1.6733934   0.0318126  )
        41           O   tau(  41) = (   0.5696567   0.3743553   0.0318126  )
        42           O   tau(  42) = (   0.5696567   0.8073680   0.0318126  )
        43           O   tau(  43) = (   0.5696567   1.2403807   0.0318126  )
        44           O   tau(  44) = (   0.5696567   1.6733934   0.0318126  )
        45           O   tau(  45) = (   0.8196567   0.3743553   0.0318126  )
        46           O   tau(  46) = (   0.8196567   0.8073680   0.0318126  )
        47           O   tau(  47) = (   0.8196567   1.2403807   0.0318126  )
        48           O   tau(  48) = (   0.8196567   1.6733934   0.0318126  )
        49           O   tau(  49) = (   0.1946567   0.1578489   0.0318126  )
        50           O   tau(  50) = (   0.1946567   0.5908616   0.0318126  )
        51           O   tau(  51) = (   0.1946567   1.0238743   0.0318126  )
        52           O   tau(  52) = (   0.1946567   1.4568870   0.0318126  )
        53           O   tau(  53) = (   0.4446567   0.1578489   0.0318126  )
        54           O   tau(  54) = (   0.4446567   0.5908616   0.0318126  )
        55           O   tau(  55) = (   0.4446567   1.0238743   0.0318126  )
        56           O   tau(  56) = (   0.4446567   1.4568870   0.0318126  )
        57           O   tau(  57) = (   0.6946567   0.1578489   0.0318126  )
        58           O   tau(  58) = (   0.6946567   0.5908616   0.0318126  )
        59           O   tau(  59) = (   0.6946567   1.0238743   0.0318126  )
        60           O   tau(  60) = (   0.6946567   1.4568870   0.0318126  )
[...]
       985           Si  tau( 985) = (   0.5663582   0.3180770   0.9165988  )
       986           Si  tau( 986) = (   0.5663582   0.7510897   0.9165988  )
       987           Si  tau( 987) = (   0.5663582   1.1841024   0.9165988  )
       988           Si  tau( 988) = (   0.5663582   1.6171151   0.9165988  )
       989           Si  tau( 989) = (   0.8163582   0.3180770   0.9165988  )
       990           Si  tau( 990) = (   0.8163582   0.7510897   0.9165988  )
       991           Si  tau( 991) = (   0.8163582   1.1841024   0.9165988  )
       992           Si  tau( 992) = (   0.8163582   1.6171151   0.9165988  )
       993           O   tau( 993) = (   0.0159705   0.0896532   0.9484115  )
       994           O   tau( 994) = (   0.0159705   0.5226659   0.9484115  )
       995           O   tau( 995) = (   0.0159705   0.9556786   0.9484115  )
       996           O   tau( 996) = (   0.0159705   1.3886913   0.9484115  )
       997           O   tau( 997) = (   0.2659705   0.0896532   0.9484115  )
       998           O   tau( 998) = (   0.2659705   0.5226659   0.9484115  )
       999           O   tau( 999) = (   0.2659705   0.9556786   0.9484115  )
      1000           O   tau(1000) = (   0.2659705   1.3886913   0.9484115  )
      1001           O   tau(1001) = (   0.5159704   0.0896532   0.9484115  )
      1002           O   tau(1002) = (   0.5159704   0.5226659   0.9484115  )
      1003           O   tau(1003) = (   0.5159704   0.9556786   0.9484115  )
      1004           O   tau(1004) = (   0.5159704   1.3886913   0.9484115  )
      1005           O   tau(1005) = (   0.7659704   0.0896532   0.9484115  )
      1006           O   tau(1006) = (   0.7659704   0.5226659   0.9484115  )
      1007           O   tau(1007) = (   0.7659704   0.9556786   0.9484115  )
      1008           O   tau(1008) = (   0.7659704   1.3886913   0.9484115  )
      1009           O   tau(1009) = (   0.1409704   0.3061596   0.9484115  )
      1010           O   tau(1010) = (   0.1409704   0.7391723   0.9484115  )
      1011           O   tau(1011) = (   0.1409704   1.1721850   0.9484115  )
[...]
     atom   10 type  1   force =     0.00006666   -0.00001007    0.00000198
     atom   11 type  1   force =     0.00006574   -0.00000003    0.00000000
     atom   12 type  1   force =     0.00006666    0.00001007   -0.00000198
     atom   13 type  1   force =     0.00006757    0.00000000   -0.00000000
     atom   14 type  1   force =     0.00006666   -0.00001007    0.00000198
     atom   15 type  1   force =     0.00006574   -0.00000003    0.00000000
     atom   16 type  1   force =     0.00006666    0.00001007   -0.00000198
     atom   17 type  1   force =     0.00006730   -0.00000711    0.00000140
     atom   18 type  1   force =     0.00006601   -0.00000714    0.00000139
     atom   19 type  1   force =     0.00006601    0.00000708   -0.00000139
     atom   20 type  1   force =     0.00006730    0.00000711   -0.00000140
     atom   21 type  1   force =     0.00006730   -0.00000711    0.00000140
     atom   22 type  1   force =     0.00006601   -0.00000715    0.00000140
     atom   23 type  1   force =     0.00006601    0.00000708   -0.00000139
     atom   24 type  1   force =     0.00006730    0.00000711   -0.00000140
     atom   25 type  1   force =     0.00006730   -0.00000711    0.00000140
     atom   26 type  1   force =     0.00006601   -0.00000715    0.00000139
     atom   27 type  1   force =     0.00006601    0.00000709   -0.00000139
     atom   28 type  1   force =     0.00006730    0.00000711   -0.00000140
     atom   29 type  1   force =     0.00006730   -0.00000711    0.00000140
     atom   30 type  1   force =     0.00006601   -0.00000715    0.00000139
     atom   31 type  1   force =     0.00006601    0.00000708   -0.00000139
     atom   32 type  1   force =     0.00006730    0.00000711   -0.00000140
     atom   33 type  2   force =    -0.01665422   -0.00148215   -0.00964433
     atom   34 type  2   force =    -0.01659250    0.00025186   -0.00972076
     atom   35 type  2   force =    -0.01652340   -0.00058785   -0.00980073
     atom   36 type  2   force =    -0.01658447   -0.00233013   -0.00972438
     atom   37 type  2   force =    -0.01665422   -0.00148215   -0.00964433
     atom   38 type  2   force =    -0.01659250    0.00025186   -0.00972076
     atom   39 type  2   force =    -0.01652340   -0.00058785   -0.00980073
     atom   40 type  2   force =    -0.01658447   -0.00233013   -0.00972438
     atom   41 type  2   force =    -0.01665422   -0.00148215   -0.00964433
     atom   42 type  2   force =    -0.01659250    0.00025186   -0.00972076
     atom   43 type  2   force =    -0.01652340   -0.00058785   -0.00980073
     atom   44 type  2   force =    -0.01658447   -0.00233013   -0.00972438
     atom   45 type  2   force =    -0.01665422   -0.00148215   -0.00964433
     atom   46 type  2   force =    -0.01659250    0.00025186   -0.00972076
     atom   47 type  2   force =    -0.01652340   -0.00058785   -0.00980073
     atom   48 type  2   force =    -0.01658447   -0.00233013   -0.00972438
     atom   49 type  2   force =    -0.01663188   -0.00226322   -0.00966864
     atom   50 type  2   force =    -0.01663792   -0.00044324   -0.00966585
     atom   51 type  2   force =    -0.01654504    0.00019483   -0.00977669
     atom   52 type  2   force =    -0.01653974   -0.00163665   -0.00977901
     atom   53 type  2   force =    -0.01663188   -0.00226322   -0.00966864
     atom   54 type  2   force =    -0.01663792   -0.00044324   -0.00966585
     atom   55 type  2   force =    -0.01654504    0.00019483   -0.00977669
     atom   56 type  2   force =    -0.01653974   -0.00163665   -0.00977901
     atom   57 type  2   force =    -0.01663188   -0.00226322   -0.00966864
     atom   58 type  2   force =    -0.01663792   -0.00044324   -0.00966585
     atom   59 type  2   force =    -0.01654504    0.00019483   -0.00977669
     atom   60 type  2   force =    -0.01653974   -0.00163665   -0.00977901
[...]
     atom 2290 type  2   force =    -0.01654504   -0.00019483    0.00977669
     atom 2291 type  2   force =    -0.01663792    0.00044324    0.00966585
     atom 2292 type  2   force =    -0.01663188    0.00226322    0.00966864
     atom 2293 type  2   force =    -0.01653976    0.00163642    0.00977897
     atom 2294 type  2   force =    -0.01654504   -0.00019483    0.00977669
     atom 2295 type  2   force =    -0.01663792    0.00044324    0.00966585
     atom 2296 type  2   force =    -0.01663188    0.00226322    0.00966864
     atom 2297 type  2   force =    -0.01653976    0.00163642    0.00977897
     atom 2298 type  2   force =    -0.01654504   -0.00019483    0.00977669
     atom 2299 type  2   force =    -0.01663792    0.00044324    0.00966585
     atom 2300 type  2   force =    -0.01663188    0.00226322    0.00966864
     atom 2301 type  2   force =    -0.01653976    0.00163642    0.00977897
     atom 2302 type  2   force =    -0.01654504   -0.00019483    0.00977669
     atom 2303 type  2   force =    -0.01663792    0.00044324    0.00966585
     atom 2304 type  2   force =    -0.01663188    0.00226322    0.00966864
     The Hubbard contrib.    to forces
     atom    1 type  1   force =     0.00000000    0.00000000    0.00000000
     atom    2 type  1   force =     0.00000000    0.00000000    0.00000000
     atom    3 type  1   force =     0.00000000    0.00000000    0.00000000
     atom    4 type  1   force =     0.00000000    0.00000000    0.00000000
     atom    5 type  1   force =     0.00000000    0.00000000    0.00000000
     atom    6 type  1   force =     0.00000000    0.00000000    0.00000000
     atom    7 type  1   force =     0.00000000    0.00000000    0.00000000
     atom    8 type  1   force =     0.00000000    0.00000000    0.00000000
     atom    9 type  1   force =     0.00000000    0.00000000    0.00000000
     atom   10 type  1   force =     0.00000000    0.00000000    0.00000000
     atom   11 type  1   force =     0.00000000    0.00000000    0.00000000
     atom   12 type  1   force =     0.00000000    0.00000000    0.00000000
     atom   13 type  1   force =     0.00000000    0.00000000    0.00000000
     atom   14 type  1   force =     0.00000000    0.00000000    0.00000000
     atom   15 type  1   force =     0.00000000    0.00000000    0.00000000
     atom   16 type  1   force =     0.00000000    0.00000000    0.00000000
     atom   17 type  1   force =     0.00000000    0.00000000    0.00000000
     atom   18 type  1   force =     0.00000000    0.00000000    0.00000000
     atom   19 type  1   force =     0.00000000    0.00000000    0.00000000
     atom   20 type  1   force =     0.00000000    0.00000000    0.00000000
     atom   21 type  1   force =     0.00000000    0.00000000    0.00000000
     atom   22 type  1   force =     0.00000000    0.00000000    0.00000000
     atom   23 type  1   force =     0.00000000    0.00000000    0.00000000
     atom   24 type  1   force =     0.00000000    0.00000000    0.00000000
     atom   25 type  1   force =     0.00000000    0.00000000    0.00000000
     atom   26 type  1   force =     0.00000000    0.00000000    0.00000000
     atom   27 type  1   force =     0.00000000    0.00000000    0.00000000
     atom   28 type  1   force =     0.00000000    0.00000000    0.00000000
     atom   29 type  1   force =     0.00000000    0.00000000    0.00000000
     atom   30 type  1   force =     0.00000000    0.00000000    0.00000000
     atom   31 type  1   force =     0.00000000    0.00000000    0.00000000
     atom   32 type  1   force =     0.00000000    0.00000000    0.00000000
     atom   33 type  2   force =     0.00000000    0.00000000    0.00000000
     atom   34 type  2   force =     0.00000000    0.00000000    0.00000000
     atom   35 type  2   force =     0.00000000    0.00000000    0.00000000
     atom   36 type  2   force =     0.00000000    0.00000000    0.00000000
     atom   37 type  2   force =     0.00000000    0.00000000    0.00000000
     atom   38 type  2   force =     0.00000000    0.00000000    0.00000000
     atom   39 type  2   force =     0.00000000    0.00000000    0.00000000
     atom   40 type  2   force =     0.00000000    0.00000000    0.00000000
     atom   41 type  2   force =     0.00000000    0.00000000    0.00000000
     atom   42 type  2   force =     0.00000000    0.00000000    0.00000000
     atom   43 type  2   force =     0.00000000    0.00000000    0.00000000
     atom   44 type  2   force =     0.00000000    0.00000000    0.00000000
     atom   45 type  2   force =     0.00000000    0.00000000    0.00000000
     atom   46 type  2   force =     0.00000000    0.00000000    0.00000000
     atom   47 type  2   force =     0.00000000    0.00000000    0.00000000
     atom   48 type  2   force =     0.00000000    0.00000000    0.00000000
     atom   49 type  2   force =     0.00000000    0.00000000    0.00000000
     atom   50 type  2   force =     0.00000000    0.00000000    0.00000000
     atom   51 type  2   force =     0.00000000    0.00000000    0.00000000
     atom   52 type  2   force =     0.00000000    0.00000000    0.00000000
     atom   53 type  2   force =     0.00000000    0.00000000    0.00000000
     atom   54 type  2   force =     0.00000000    0.00000000    0.00000000
     atom   55 type  2   force =     0.00000000    0.00000000    0.00000000
     atom   56 type  2   force =     0.00000000    0.00000000    0.00000000
     atom   57 type  2   force =     0.00000000    0.00000000    0.00000000
     atom   58 type  2   force =     0.00000000    0.00000000    0.00000000
     atom   59 type  2   force =     0.00000000    0.00000000    0.00000000
     atom   60 type  2   force =     0.00000000    0.00000000    0.00000000
[...]
     atom 2290 type  2   force =     0.00000000    0.00000000    0.00000000
     atom 2291 type  2   force =     0.00000000    0.00000000    0.00000000
     atom 2292 type  2   force =     0.00000000    0.00000000    0.00000000
     atom 2293 type  2   force =     0.00000000    0.00000000    0.00000000
     atom 2294 type  2   force =     0.00000000    0.00000000    0.00000000
     atom 2295 type  2   force =     0.00000000    0.00000000    0.00000000
     atom 2296 type  2   force =     0.00000000    0.00000000    0.00000000
     atom 2297 type  2   force =     0.00000000    0.00000000    0.00000000
     atom 2298 type  2   force =     0.00000000    0.00000000    0.00000000
     atom 2299 type  2   force =     0.00000000    0.00000000    0.00000000
     atom 2300 type  2   force =     0.00000000    0.00000000    0.00000000
     atom 2301 type  2   force =     0.00000000    0.00000000    0.00000000
     atom 2302 type  2   force =     0.00000000    0.00000000    0.00000000
     atom 2303 type  2   force =     0.00000000    0.00000000    0.00000000
     atom 2304 type  2   force =     0.00000000    0.00000000    0.00000000
     The SCF correction term to forces
     atom    1 type  1   force =     0.00000005    0.00000000    0.00000000
     atom    2 type  1   force =     0.00000004   -0.00000001   -0.00000003
     atom    3 type  1   force =    -0.00000002    0.00000000    0.00000000
     atom    4 type  1   force =     0.00000004    0.00000001    0.00000003
     atom    5 type  1   force =     0.00000003    0.00000000    0.00000000
     atom    6 type  1   force =     0.00000001    0.00000000    0.00000000
     atom    7 type  1   force =    -0.00000001    0.00000000    0.00000000
     atom    8 type  1   force =     0.00000001   -0.00000000   -0.00000000
     atom    9 type  1   force =     0.00000010    0.00000000    0.00000000
     atom   10 type  1   force =    -0.00000001    0.00000001    0.00000003
     atom   11 type  1   force =     0.00000002    0.00000000   -0.00000000
     atom   12 type  1   force =    -0.00000001   -0.00000001   -0.00000003
     atom   13 type  1   force =     0.00000006    0.00000000    0.00000000
     atom   14 type  1   force =     0.00000003   -0.00000000   -0.00000000
     atom   15 type  1   force =     0.00000004    0.00000000   -0.00000000
     atom   16 type  1   force =     0.00000003    0.00000000    0.00000000
     atom   17 type  1   force =     0.00000003   -0.00000001   -0.00000000
     atom   18 type  1   force =     0.00000002   -0.00000000    0.00000000
     atom   19 type  1   force =     0.00000002    0.00000000   -0.00000000
     atom   20 type  1   force =     0.00000003    0.00000001    0.00000000
     atom   21 type  1   force =     0.00000002    0.00000001   -0.00000004
     atom   22 type  1   force =     0.00000001   -0.00000000   -0.00000000
     atom   23 type  1   force =     0.00000001    0.00000000    0.00000000
     atom   24 type  1   force =     0.00000002   -0.00000001    0.00000004
     atom   25 type  1   force =     0.00000002    0.00000000   -0.00000001
     atom   26 type  1   force =     0.00000005   -0.00000001   -0.00000004
     atom   27 type  1   force =     0.00000005    0.00000001    0.00000004
     atom   28 type  1   force =     0.00000002   -0.00000000    0.00000001
     atom   29 type  1   force =     0.00000001   -0.00000001   -0.00000005
     atom   30 type  1   force =     0.00000003    0.00000000   -0.00000003
     atom   31 type  1   force =     0.00000003   -0.00000000    0.00000003
     atom   32 type  1   force =     0.00000001    0.00000001    0.00000005
     atom   33 type  2   force =     0.00000014   -0.00000002    0.00000007
     atom   34 type  2   force =     0.00000010   -0.00000001    0.00000005
     atom   35 type  2   force =     0.00000015   -0.00000003    0.00000008
     atom   36 type  2   force =     0.00000014   -0.00000002    0.00000007
     atom   37 type  2   force =     0.00000013   -0.00000002    0.00000007
     atom   38 type  2   force =     0.00000013   -0.00000002    0.00000006
     atom   39 type  2   force =     0.00000013   -0.00000004    0.00000007
     atom   40 type  2   force =     0.00000011   -0.00000002    0.00000007
     atom   41 type  2   force =     0.00000014   -0.00000002    0.00000007
     atom   42 type  2   force =     0.00000014   -0.00000004    0.00000008
     atom   43 type  2   force =     0.00000013   -0.00000003    0.00000006
     atom   44 type  2   force =     0.00000016   -0.00000003    0.00000009
     atom   45 type  2   force =     0.00000013   -0.00000003    0.00000008
     atom   46 type  2   force =     0.00000016   -0.00000001    0.00000005
     atom   47 type  2   force =     0.00000014   -0.00000004    0.00000007
     atom   48 type  2   force =     0.00000012   -0.00000002    0.00000008
     atom   49 type  2   force =     0.00000012   -0.00000003    0.00000007
     atom   50 type  2   force =     0.00000014   -0.00000000    0.00000007
     atom   51 type  2   force =     0.00000013   -0.00000002    0.00000008
     atom   52 type  2   force =     0.00000015   -0.00000004    0.00000010
     atom   53 type  2   force =     0.00000013   -0.00000001    0.00000007
     atom   54 type  2   force =     0.00000014   -0.00000002    0.00000008
     atom   55 type  2   force =     0.00000013   -0.00000002    0.00000006
     atom   56 type  2   force =     0.00000014   -0.00000003    0.00000007
     atom   57 type  2   force =     0.00000013   -0.00000002    0.00000006
     atom   58 type  2   force =     0.00000013   -0.00000002    0.00000008
     atom   59 type  2   force =     0.00000015   -0.00000002    0.00000008
     atom   60 type  2   force =     0.00000012   -0.00000003    0.00000009
[...]
     atom 2290 type  2   force =     0.00000013    0.00000002   -0.00000008
     atom 2291 type  2   force =     0.00000014    0.00000000   -0.00000007
     atom 2292 type  2   force =     0.00000012    0.00000003   -0.00000007
     atom 2293 type  2   force =     0.00000014    0.00000003   -0.00000007
     atom 2294 type  2   force =     0.00000013    0.00000002   -0.00000006
     atom 2295 type  2   force =     0.00000014    0.00000002   -0.00000008
     atom 2296 type  2   force =     0.00000013    0.00000001   -0.00000007
     atom 2297 type  2   force =     0.00000012    0.00000003   -0.00000009
     atom 2298 type  2   force =     0.00000015    0.00000002   -0.00000008
     atom 2299 type  2   force =     0.00000013    0.00000002   -0.00000008
     atom 2300 type  2   force =     0.00000013    0.00000002   -0.00000006
     atom 2301 type  2   force =     0.00000014    0.00000000   -0.00000006
     atom 2302 type  2   force =     0.00000014    0.00000003   -0.00000008
     atom 2303 type  2   force =     0.00000013    0.00000001   -0.00000006
     atom 2304 type  2   force =     0.00000013    0.00000002   -0.00000006

     Total force =     0.241469     Total SCF correction =     0.000006

     Writing output data file ./SiO2_OR_1152_us.save/

     General routines

     Parallel routines

   This run was terminated on:   3:59:47  20Mar2021

   JOB DONE.