     Program PWSCF v.6.6 starts on 24Sep2021 at 19:22:59

     K-points division:     npool     =       2
     R & G space division:  proc/nbgrp/npool/nimage =      24
     Fft bands division:     nmany     =       1
     Reading input from ../inputs/input_ausurf_576

     Current dimensions of program PWSCF are:
     Max number of different atomic species (ntypx) = 10
     Max number of k-points (npk) =  40000
     Max angular momentum in pseudopotentials (lmaxx) =  3

     Subspace diagonalization in iterative solution of the eigenvalue problem:
     one sub-group per band group will be used

     Found symmetry operation: I + (  0.1250  0.0000  0.0000)
     This is a supercell, fractional translations are disabled

     Title:
      Ausurf

     bravais-lattice index     =            8
     lattice parameter (alat)  =      44.5975  a.u.
     unit-cell volume          =  103111.8970 (a.u.)^3
     number of atoms/cell      =          576
     number of atomic types    =            1
     number of electrons       =      6336.00
     number of Kohn-Sham states=         3802
     kinetic-energy cutoff     =      40.0000  Ry
     charge density cutoff     =     350.0000  Ry
     convergence threshold     =      1.0E-06
     mixing beta               =       0.7000
     number of iterations used =            8  TF        mixing
     Exchange-correlation=  SLA  PW   PBE  PBE
                           (   1   4   3   4   0   0   0)

     celldm(1)=  44.597537  celldm(2)=   0.866025  celldm(3)=   1.342287
     celldm(4)=   0.000000  celldm(5)=   0.000000  celldm(6)=   0.000000

     crystal axes: (cart. coord. in units of alat)
               a(1) = (   1.000000   0.000000   0.000000 )
               a(2) = (   0.000000   0.866025   0.000000 )
               a(3) = (   0.000000   0.000000   1.342287 )

     reciprocal axes: (cart. coord. in units 2 pi/alat)
               b(1) = (  1.000000  0.000000  0.000000 )
               b(2) = (  0.000000  1.154701  0.000000 )
               b(3) = (  0.000000  0.000000  0.744997 )

     PseudoPot. # 1 for Au read from file:
     /marconi/home/userexternal/czeni000/dft_src/pseudo/Au.pbe-nd-van.UPF
     MD5 check sum: deb5c07af10777505a79e28f5b4b4115
     Pseudo is Ultrasoft + core correction, Zval = 11.0
     Generated by new atomic code, or converted to UPF format
     Using radial grid of  985 points,  3 beta functions with:
                l(1) =   1
                l(2) =   2
                l(3) =   2
     Q(r) pseudized with  8 coefficients,  rinner =    1.100   1.100   1.100
                                                       1.100   1.100

     atomic species   valence    mass     pseudopotential
        Au            11.00   196.96000     Au( 1.00)

      2 Sym. Ops. (no inversion) found

   Cartesian axes

     site n.     atom                  positions (alat units)
         1           Au  tau(   1) = (   0.0000000   0.0000000   0.0000000  )
         2           Au  tau(   2) = (   0.1250000   0.0000000   0.0000000  )
         3           Au  tau(   3) = (   0.2500000   0.0000000   0.0000000  )
         4           Au  tau(   4) = (   0.0000000   0.2165064   0.0000000  )
         5           Au  tau(   5) = (   0.3750000   0.0000000   0.0000000  )
         6           Au  tau(   6) = (   0.1250000   0.2165064   0.0000000  )
         7           Au  tau(   7) = (   0.5000000   0.0000000   0.0000000  )
         8           Au  tau(   8) = (   0.2500000   0.2165064   0.0000000  )
         9           Au  tau(   9) = (   0.6250000   0.0000000   0.0000000  )
        10           Au  tau(  10) = (   0.0000000   0.4330127   0.0000000  )
        11           Au  tau(  11) = (   0.3750000   0.2165064   0.0000000  )
        12           Au  tau(  12) = (   0.7500000   0.0000000   0.0000000  )
        13           Au  tau(  13) = (   0.1250000   0.4330127   0.0000000  )
        14           Au  tau(  14) = (   0.5000000   0.2165064   0.0000000  )
        15           Au  tau(  15) = (   0.8750000   0.0000000   0.0000000  )
        16           Au  tau(  16) = (   0.2500000   0.4330127   0.0000000  )
        17           Au  tau(  17) = (   0.6250000   0.2165064   0.0000000  )
        18           Au  tau(  18) = (   0.0000000   0.6495191   0.0000000  )
        19           Au  tau(  19) = (   0.3750000   0.4330127   0.0000000  )
        20           Au  tau(  20) = (   0.7500000   0.2165064   0.0000000  )
        21           Au  tau(  21) = (   0.1250000   0.6495191   0.0000000  )
        22           Au  tau(  22) = (   0.5000000   0.4330127   0.0000000  )
        23           Au  tau(  23) = (   0.8750000   0.2165064   0.0000000  )
        24           Au  tau(  24) = (   0.2500000   0.6495191   0.0000000  )
        25           Au  tau(  25) = (   0.6250000   0.4330127   0.0000000  )
        26           Au  tau(  26) = (   0.3750000   0.6495191   0.0000000  )
        27           Au  tau(  27) = (   0.7500000   0.4330127   0.0000000  )
        28           Au  tau(  28) = (   0.5000000   0.6495191   0.0000000  )
        29           Au  tau(  29) = (   0.8750000   0.4330127   0.0000000  )
        30           Au  tau(  30) = (   0.6250000   0.6495191   0.0000000  )
        31           Au  tau(  31) = (   0.7500000   0.6495191   0.0000000  )
        32           Au  tau(  32) = (   0.8750000   0.6495191   0.0000000  )
        33           Au  tau(  33) = (   0.0625000   0.0360844   0.1020621  )
        34           Au  tau(  34) = (   0.1875000   0.0360844   0.1020621  )
        35           Au  tau(  35) = (   0.3125000   0.0360844   0.1020621  )
        36           Au  tau(  36) = (   0.0625000   0.2525908   0.1020621  )
        37           Au  tau(  37) = (   0.3125000   0.2525908   0.1020621  )
        38           Au  tau(  38) = (   0.4375000   0.0360844   0.1020621  )
        39           Au  tau(  39) = (   0.6875000   0.0360844   0.1020621  )
        40           Au  tau(  40) = (   0.0625000   0.4690971   0.1020621  )
        41           Au  tau(  41) = (   0.1875000   0.2525908   0.1020621  )
        42           Au  tau(  42) = (   0.1875000   0.4690971   0.1020621  )
        43           Au  tau(  43) = (   0.4375000   0.2525908   0.1020621  )
        44           Au  tau(  44) = (   0.5625000   0.0360844   0.1020621  )
        45           Au  tau(  45) = (   0.5625000   0.2525908   0.1020621  )
        46           Au  tau(  46) = (   0.8125000   0.0360844   0.1020621  )
        47           Au  tau(  47) = (   0.9375000   0.0360844   0.1020621  )
        48           Au  tau(  48) = (   0.1250000   0.1443376   0.1020621  )
        49           Au  tau(  49) = (   0.1250000   0.3608439   0.1020621  )
        50           Au  tau(  50) = (   0.5000000   0.1443376   0.1020621  )
        51           Au  tau(  51) = (   0.1875000   0.6856034   0.1020621  )
        52           Au  tau(  52) = (   0.3125000   0.4690971   0.1020621  )
        53           Au  tau(  53) = (   0.5625000   0.4690971   0.1020621  )
        54           Au  tau(  54) = (   0.6875000   0.2525908   0.1020621  )
        55           Au  tau(  55) = (   0.9375000   0.2525908   0.1020621  )
        56           Au  tau(  56) = (   0.2500000   0.1443376   0.1020621  )
        57           Au  tau(  57) = (   0.3750000   0.1443376   0.1020621  )
        58           Au  tau(  58) = (   0.0625000   0.6856034   0.1020621  )
        59           Au  tau(  59) = (   0.3125000   0.6856034   0.1020621  )
        60           Au  tau(  60) = (   0.4375000   0.4690971   0.1020621  )
[...]
       562           Au  tau( 562) = (   0.5625000   0.1082532   0.9185586  )
       563           Au  tau( 563) = (   0.6875000   0.3247595   0.9185586  )
       564           Au  tau( 564) = (   0.8125000   0.3247595   0.9185586  )
       565           Au  tau( 565) = (   0.4375000   0.7577722   0.9185586  )
       566           Au  tau( 566) = (   0.5625000   0.7577722   0.9185586  )
       567           Au  tau( 567) = (   0.6875000   0.7577722   0.9185586  )
       568           Au  tau( 568) = (   0.8125000   0.5412659   0.9185586  )
       569           Au  tau( 569) = (   0.8125000   0.7577722   0.9185586  )
       570           Au  tau( 570) = (   0.9375000   0.5412659   0.9185586  )
       571           Au  tau( 571) = (   0.9375000   0.7577722   0.9185586  )
       572           Au  tau( 572) = (   0.1875000   0.7577722   0.9185586  )
       573           Au  tau( 573) = (   0.3125000   0.7577722   0.9185586  )
       574           Au  tau( 574) = (   0.5625000   0.5412659   0.9185586  )
       575           Au  tau( 575) = (   0.6875000   0.5412659   0.9185586  )
       576           Au  tau( 576) = (   0.9375000   0.3247595   0.9185586  )

     number of k points=     4  Marzari-Vanderbilt smearing, width (Ry)=  0.0500
                       cart. coord. in units 2pi/alat
        k(    1) = (   0.1666667   0.1924501   0.0000000), wk =   0.8888889
        k(    2) = (   0.1666667  -0.5773503   0.0000000), wk =   0.4444444
        k(    3) = (  -0.5000000   0.1924501   0.0000000), wk =   0.4444444
        k(    4) = (  -0.5000000  -0.5773503   0.0000000), wk =   0.2222222

     Initial potential from superposition of free atoms

     starting charge 6329.31153, renormalised to 6336.00000

     negative rho (up, down):  1.536E+01 0.000E+00
     Starting wfcs are 5184 randomized atomic wfcs

     Self-consistent Calculation

     iteration #  1     ecut=    40.00 Ry     beta= 0.70
     Davidson diagonalization with overlap
     ethr =  1.00E-02,  avg # of iterations =  3.0

     Threshold (ethr) on eigenvalues was too large:
     Diagonalizing with lowered threshold

     Davidson diagonalization with overlap
     ethr =  3.34E-04,  avg # of iterations =  3.5

     negative rho (up, down):  1.461E+01 0.000E+00

     total energy              =  -58770.14091623 Ry
     estimated scf accuracy    <      25.28244433 Ry

[...]

     iteration #  4     ecut=    40.00 Ry     beta= 0.70
     Davidson diagonalization with overlap
     c_bands:  3 eigenvalues not converged
     ethr =  1.04E-04,  avg # of iterations = 13.0

[...]

     iteration # 13     ecut=    40.00 Ry     beta= 0.70
     Davidson diagonalization with overlap
     c_bands:  1 eigenvalues not converged
     ethr =  9.79E-06,  avg # of iterations = 16.8

[...]

     total energy              =  -58770.85358509 Ry
     estimated scf accuracy    <       0.00000419 Ry

     iteration # 24     ecut=    40.00 Ry     beta= 0.70
     Davidson diagonalization with overlap
     ethr =  6.61E-11,  avg # of iterations =  2.2

[...]

     End of self-consistent calculation

          k = 0.1667 0.1925 0.0000 (440477 PWs)   bands (ev):

    -0.8130  -0.5876  -0.5139  -0.4713  -0.3680  -0.2964  -0.2497  -0.2262
    -0.1779  -0.0866  -0.0350  -0.0152   0.0254   0.0345   0.1020   0.1857
     0.2373   0.2427   0.2537   0.3063   0.3117   0.4510   0.4900   0.4984
     0.5171   0.5491   0.5640   0.5802   0.6015   0.6350   0.7098   0.7195
     0.7500   0.7752   0.7833   0.8163   0.8244   0.8362   0.8821   0.9223
     0.9341   0.9539   0.9650   0.9951   1.0079   1.0167   1.0199   1.0260
[...]
     1.8521   1.8536   1.8546   1.8556   1.8571   1.8582   1.8641   1.8683
     1.8813   1.8821   1.8898   1.8926   1.8936   1.8949   1.9103   1.9117
     1.9218   1.9269   1.9301   1.9310   1.9355   1.9393   1.9417   1.9442
     1.9455   1.9455   1.9476   1.9508   1.9645   1.9649   1.9686   1.9730
     1.9731   1.9844   1.9847   1.9864   1.9923   1.9972   1.9991   1.9998
     2.0083   2.0088   2.0095   2.0104   2.0133   2.0150   2.0218   2.0285
     2.0302   2.0336   2.0382   2.0383   2.0406   2.0427   2.0435   2.0466
     2.0560   2.0592   2.0658   2.0742   2.0845   2.0854   2.0862   2.0883
     2.0886   2.0946   2.0983   2.1027   2.1078   2.1097   2.1106   2.1114
     2.1130   2.1220   2.1227   2.1254   2.1272   2.1291   2.1326   2.1378
     2.1387   2.1388   2.1414   2.1441   2.1458   2.1466   2.1516   2.1520
     2.1578   2.1596   2.1616   2.1636   2.1657   2.1664   2.1685   2.1688
     2.1714   2.1764   2.1782   2.1825   2.1857   2.1962   2.1976   2.1984
     2.1985   2.2006   2.2043   2.2125   2.2150   2.2167   2.2187   2.2190
     2.2246   2.2258   2.2293   2.2302   2.2308   2.2314   2.2340   2.2342
     2.2356   2.2382   2.2416   2.2417   2.2429   2.2442   2.2445   2.2450
     2.2477   2.2486   2.2512   2.2591   2.2734   2.2775   2.2804   2.2806
     2.2886   2.2892   2.2906   2.2930   2.3019   2.3027   2.3037   2.3045
     2.3080   2.3080   2.3086   2.3100   2.3147   2.3161   2.3180   2.3180
     2.3195   2.3229   2.3254   2.3260   2.3262   2.3295   2.3318   2.3318
     2.3327   2.3337   2.3375   2.3382   2.3405   2.3433   2.3437   2.3439
     2.3449   2.3478   2.3495   2.3503   2.3550   2.3553   2.3559   2.3580
     2.3628   2.3654   2.3700   2.3701   2.3710   2.3756   2.3765   2.3808
     2.3811   2.3825   2.3833   2.3855   2.3916   2.3929   2.3991   2.4009
     2.4064   2.4081   2.4115   2.4118   2.4122   2.4163   2.4166   2.4224
     2.4231   2.4263   2.4263   2.4265   2.4282   2.4283   2.4284   2.4301
     2.4306   2.4307   2.4337   2.4365   2.4393   2.4396   2.4407   2.4483
     2.4494   2.4502   2.4515   2.4522   2.4562   2.4603   2.4619   2.4665
     2.4671   2.4677   2.4686   2.4700   2.4744   2.4758   2.4759   2.4766
     2.4837   2.4838   2.4851   2.4857   2.4878   2.4887   2.4890   2.4953
     2.4985   2.5038   2.5088   2.5096   2.5109   2.5135   2.5136   2.5151
     2.5196   2.5203   2.5245   2.5291   2.5322   2.5357   2.5371   2.5376
     2.5380   2.5393   2.5430   2.5463   2.5474   2.5476   2.5512   2.5522
     2.5534   2.5556   2.5580   2.5602   2.5628   2.5643   2.5647   2.5681
     2.5681   2.5683   2.5687   2.5742   2.5757   2.5777   2.5778   2.5801
     2.5802   2.5812   2.5825   2.5867   2.5880   2.5905   2.5916   2.5924
     2.5927   2.5933   2.5944   2.5963   2.5982   2.5986   2.5986   2.5991
     2.6022   2.6072   2.6140   2.6143   2.6170   2.6191   2.6207   2.6208
     2.6211   2.6234   2.6339   2.6352   2.6415   2.6433   2.6453   2.6453
     2.6541   2.6549   2.6574   2.6591   2.6600   2.6614   2.6636   2.6637
     2.6672   2.6684   2.6688   2.6700   2.6731   2.6783   2.6792   2.6805
     2.6824   2.6824   2.6846   2.6895   2.6915   2.6933   2.6942   2.6980
     2.6989   2.7013   2.7040   2.7048   2.7050   2.7086   2.7104   2.7149
     2.7164   2.7166   2.7197   2.7199   2.7236   2.7237   2.7267   2.7283
[...]
    13.7254  13.7459  13.7484  13.7551  13.7558  13.7603  13.7618  13.7661
    13.7666  13.7672  13.7677  13.8024  13.8096  13.8104  13.8205  13.8226
    13.8265  13.8269  13.8337  13.8359  13.8407  13.8435  13.8821  13.8831
    13.8871  13.8908  13.8961  13.9145  13.9299  13.9335  13.9338  13.9393
    13.9447  13.9526  13.9555  13.9582  13.9613  13.9648  13.9928  13.9952
    13.9994  14.0038  14.0041  14.0079  14.0122  14.0298  14.0389  14.0431
    14.0495  14.0700  14.0745  14.0905  14.0915  14.0995  14.1016  14.1050
    14.1100  14.1118  14.1286  14.1305  14.1427  14.1450  14.1565  14.1645
    14.1707  14.1717  14.1921  14.1933  14.2009  14.2053  14.2056  14.2312
    14.2435  14.2443  14.2494  14.2550  14.2720  14.2789  14.2823  14.2948
    14.3176  14.3200  14.3250  14.3394  14.3738  14.3742  14.3761  14.3762
    14.3767  14.3803  14.3829  14.3919  14.4026  14.4038  14.4094  14.4104
    14.4230  14.4232  14.4292  14.4870  14.4927  14.4988  14.5002  14.5022
    14.5061  14.5324  14.5368  14.5482  14.5518  14.5553  14.5567  14.5574
    14.5984  14.6957

          k = 0.1667-0.5774 0.0000 (440444 PWs)   bands (ev):

[...]

          k =-0.5000 0.1925 0.0000 (440450 PWs)   bands (ev):

[...]

          k =-0.5000-0.5774 0.0000 (440632 PWs)   bands (ev):

    -0.6372  -0.6372  -0.6372  -0.6372  -0.2985  -0.2985  -0.2985  -0.2985
     0.0043   0.0043   0.0043   0.0043   0.1948   0.1948   0.1948   0.1948
     0.2062   0.2062   0.2062   0.2062   0.3249   0.3249   0.3249   0.3249
     0.5170   0.5170   0.5170   0.5170   0.7648   0.7648   0.7648   0.7648
     0.7686   0.7686   0.7686   0.7686   0.7924   0.7924   0.7924   0.7924
     0.9683   0.9683   0.9683   0.9683   1.0401   1.0401   1.0401   1.0401
     1.0801   1.0801   1.0801   1.0801   1.2912   1.2912   1.2912   1.2912
     1.3256   1.3256   1.3256   1.3256   1.3420   1.3420   1.3420   1.3420
     1.3786   1.3786   1.3786   1.3786   1.4110   1.4110   1.4110   1.4110
     1.4343   1.4343   1.4343   1.4343   1.4916   1.4916   1.4916   1.4916
     1.6014   1.6014   1.6014   1.6014   1.6106   1.6106   1.6106   1.6106
     1.6116   1.6116   1.6116   1.6116   1.6407   1.6407   1.6407   1.6407
     1.6657   1.6657   1.6657   1.6657   1.6683   1.6683   1.6683   1.6683
     1.7139   1.7139   1.7139   1.7139   1.7256   1.7256   1.7256   1.7256
     1.7566   1.7566   1.7566   1.7566   1.8475   1.8475   1.8475   1.8475
     1.8527   1.8527   1.8527   1.8527   1.8593   1.8593   1.8593   1.8593
     1.8861   1.8861   1.8861   1.8861   1.8929   1.8929   1.8929   1.8929
     1.9155   1.9155   1.9155   1.9155   1.9238   1.9238   1.9238   1.9238
     1.9331   1.9331   1.9331   1.9331   1.9384   1.9384   1.9384   1.9384
     1.9572   1.9572   1.9572   1.9572   1.9644   1.9644   1.9644   1.9644
     1.9896   1.9896   1.9896   1.9896   1.9966   1.9966   1.9966   1.9966
     2.0034   2.0034   2.0034   2.0034   2.0399   2.0399   2.0399   2.0399
     2.0444   2.0444   2.0444   2.0444   2.0489   2.0489   2.0489   2.0489
     2.0801   2.0801   2.0801   2.0801   2.0953   2.0953   2.0953   2.0953
     2.1097   2.1097   2.1097   2.1097   2.1161   2.1161   2.1161   2.1161
     2.1472   2.1472   2.1472   2.1472   2.1635   2.1635   2.1635   2.1635
     2.1646   2.1646   2.1646   2.1646   2.1685   2.1685   2.1685   2.1685
     2.1799   2.1799   2.1799   2.1799   2.1981   2.1981   2.1981   2.1981
     2.1981   2.1981   2.1981   2.1981   2.2065   2.2065   2.2065   2.2065
     2.2131   2.2131   2.2131   2.2131   2.2215   2.2215   2.2215   2.2215
     2.2217   2.2217   2.2217   2.2217   2.2221   2.2221   2.2221   2.2221
     2.2321   2.2321   2.2321   2.2321   2.2387   2.2387   2.2387   2.2387
     2.2393   2.2393   2.2393   2.2393   2.2536   2.2536   2.2536   2.2536
     2.2608   2.2608   2.2608   2.2608   2.2716   2.2716   2.2716   2.2716
     2.2761   2.2761   2.2761   2.2761   2.3135   2.3135   2.3135   2.3135
     2.3212   2.3212   2.3212   2.3212   2.3214   2.3214   2.3214   2.3214
     2.3217   2.3217   2.3217   2.3217   2.3234   2.3234   2.3234   2.3234
     2.3504   2.3504   2.3504   2.3504   2.3722   2.3722   2.3722   2.3722
     2.3756   2.3756   2.3756   2.3756   2.3770   2.3770   2.3770   2.3770
     2.3833   2.3833   2.3833   2.3833   2.3859   2.3859   2.3859   2.3859
     2.3882   2.3882   2.3882   2.3882   2.3929   2.3929   2.3929   2.3929
     2.3941   2.3941   2.3941   2.3941   2.3945   2.3945   2.3945   2.3945
     2.3984   2.3984   2.3984   2.3984   2.4170   2.4170   2.4170   2.4170
     2.4659   2.4659   2.4659   2.4659   2.4677   2.4677   2.4677   2.4677
     2.4786   2.4786   2.4786   2.4786   2.4793   2.4793   2.4793   2.4793
     2.4842   2.4842   2.4842   2.4842   2.4959   2.4959   2.4959   2.4959
     2.5096   2.5096   2.5096   2.5096   2.5112   2.5112   2.5112   2.5112
     2.5288   2.5288   2.5288   2.5288   2.5328   2.5328   2.5328   2.5328
     2.5414   2.5414   2.5414   2.5414   2.5441   2.5441   2.5441   2.5441
     2.5527   2.5527   2.5527   2.5527   2.5600   2.5600   2.5600   2.5600
     2.5644   2.5644   2.5644   2.5644   2.5709   2.5709   2.5709   2.5709
     2.5866   2.5866   2.5866   2.5866   2.5931   2.5931   2.5931   2.5931
     2.6065   2.6065   2.6065   2.6065   2.6086   2.6086   2.6086   2.6086
     2.6155   2.6155   2.6155   2.6155   2.6238   2.6238   2.6238   2.6238
     2.6276   2.6276   2.6276   2.6276   2.6332   2.6332   2.6332   2.6332
     2.6570   2.6570   2.6570   2.6570   2.6828   2.6828   2.6828   2.6828
     2.6864   2.6864   2.6864   2.6864   2.6872   2.6872   2.6872   2.6872
     2.6937   2.6937   2.6937   2.6937   2.6984   2.6984   2.6984   2.6984
     2.7089   2.7089   2.7089   2.7089   2.7137   2.7137   2.7137   2.7137
     2.7139   2.7139   2.7139   2.7139   2.7269   2.7269   2.7269   2.7269
[...]
    13.6825  13.6825  13.6825  13.6825  13.7385  13.7385  13.7385  13.7385
    13.7531  13.7531  13.7531  13.7531  13.7953  13.7953  13.7953  13.7953
    13.8496  13.8496  13.8496  13.8496  13.8778  13.8778  13.8778  13.8778
    13.9057  13.9057  13.9057  13.9057  13.9627  13.9627  13.9627  13.9627
    14.0027  14.0027  14.0027  14.0027  14.0187  14.0187  14.0187  14.0187
    14.0575  14.0575  14.0575  14.0575  14.1053  14.1053  14.1053  14.1053
    14.1445  14.1445  14.1445  14.1445  14.1665  14.1665  14.1665  14.1665
    14.1889  14.1889  14.1889  14.1889  14.2006  14.2006  14.2006  14.2006
    14.2168  14.2168  14.2168  14.2168  14.2195  14.2195  14.2195  14.2196
    14.2358  14.2358  14.2358  14.2358  14.2535  14.2535  14.2535  14.2535
    14.2649  14.2649  14.2649  14.2649  14.3138  14.3138  14.3138  14.3138
    14.4202  14.4202  14.4202  14.4202  14.4375  14.4375  14.4375  14.4376
    14.5468  14.5468  14.5468  14.5468  14.5665  14.5665  14.5665  14.5665
    14.6124  14.6125  14.6149  14.6149  14.6149  14.6149  14.6780  14.6780
    14.6780  14.6780

     the Fermi energy is     8.2691 ev

!    total energy              =  -58770.85358541 Ry
     estimated scf accuracy    <       0.00000006 Ry
     smearing contrib. (-TS)   =       0.75867956 Ry
     internal energy E=F+TS    =  -58771.61226497 Ry

     The total energy is F=E-TS. E is the sum of the following terms:
     one-electron contribution = -271194.02478854 Ry
     hartree contribution      =  141587.01914775 Ry
     xc contribution           =  -28408.06276127 Ry
     ewald contribution        =   99243.45613710 Ry

     convergence has been achieved in  24 iterations

     negative rho (up, down):  1.567E+01 0.000E+00

     Forces acting on atoms (cartesian axes, Ry/au):

     atom    1 type  1   force =     0.00000000   -0.00165305    0.02673662
     atom    2 type  1   force =    -0.00000224   -0.00165265    0.02673422
     atom    3 type  1   force =    -0.00000022   -0.00165435    0.02673424
     atom    4 type  1   force =     0.00000000   -0.00165305    0.02673675
     atom    5 type  1   force =     0.00000201   -0.00165262    0.02673445
     atom    6 type  1   force =    -0.00000228   -0.00165266    0.02673445
     atom    7 type  1   force =     0.00000000   -0.00165288    0.02673700
     atom    8 type  1   force =    -0.00000019   -0.00165428    0.02673431
     atom    9 type  1   force =    -0.00000201   -0.00165262    0.02673445
     atom   10 type  1   force =     0.00000000   -0.00165282    0.02673682
     atom   11 type  1   force =     0.00000203   -0.00165264    0.02673441
     atom   12 type  1   force =     0.00000022   -0.00165435    0.02673424
     atom   13 type  1   force =    -0.00000219   -0.00165247    0.02673432
     atom   14 type  1   force =     0.00000000   -0.00165296    0.02673692
     atom   15 type  1   force =     0.00000224   -0.00165265    0.02673422
     atom   16 type  1   force =    -0.00000022   -0.00165415    0.02673430
     atom   17 type  1   force =    -0.00000203   -0.00165264    0.02673441
     atom   18 type  1   force =     0.00000000   -0.00165279    0.02673666
     atom   19 type  1   force =     0.00000207   -0.00165256    0.02673438
     atom   20 type  1   force =     0.00000019   -0.00165428    0.02673431
     atom   21 type  1   force =    -0.00000227   -0.00165241    0.02673431
     atom   22 type  1   force =     0.00000000   -0.00165288    0.02673683
     atom   23 type  1   force =     0.00000228   -0.00165266    0.02673445
     atom   24 type  1   force =    -0.00000016   -0.00165425    0.02673412
     atom   25 type  1   force =    -0.00000207   -0.00165256    0.02673438
     atom   26 type  1   force =     0.00000206   -0.00165256    0.02673433
     atom   27 type  1   force =     0.00000022   -0.00165415    0.02673430
     atom   28 type  1   force =     0.00000000   -0.00165296    0.02673687
     atom   29 type  1   force =     0.00000219   -0.00165247    0.02673432
     atom   30 type  1   force =    -0.00000206   -0.00165256    0.02673433
     atom   31 type  1   force =     0.00000016   -0.00165425    0.02673412
     atom   32 type  1   force =     0.00000227   -0.00165241    0.02673431
     atom   33 type  1   force =    -0.00000237    0.00335852   -0.01656897
     atom   34 type  1   force =    -0.00000263    0.00335770   -0.01656863
     atom   35 type  1   force =     0.00000238    0.00335773   -0.01656856
     atom   36 type  1   force =    -0.00000238    0.00335855   -0.01656883
     atom   37 type  1   force =     0.00000244    0.00335769   -0.01656853
     atom   38 type  1   force =     0.00000230    0.00335858   -0.01656874
     atom   39 type  1   force =    -0.00000238    0.00335773   -0.01656856
     atom   40 type  1   force =    -0.00000240    0.00335874   -0.01656889
     atom   41 type  1   force =    -0.00000257    0.00335768   -0.01656854
     atom   42 type  1   force =    -0.00000260    0.00335789   -0.01656853
     atom   43 type  1   force =     0.00000231    0.00335858   -0.01656874
     atom   44 type  1   force =    -0.00000230    0.00335858   -0.01656874
     atom   45 type  1   force =    -0.00000231    0.00335858   -0.01656874
     atom   46 type  1   force =     0.00000263    0.00335770   -0.01656863
     atom   47 type  1   force =     0.00000237    0.00335852   -0.01656897
     atom   48 type  1   force =    -0.00000211   -0.00160206   -0.00965896
     atom   49 type  1   force =    -0.00000209   -0.00160187   -0.00965896
     atom   50 type  1   force =     0.00000000   -0.00160216   -0.00965731
     atom   51 type  1   force =    -0.00000263    0.00335785   -0.01656863
     atom   52 type  1   force =     0.00000240    0.00335785   -0.01656850
     atom   53 type  1   force =    -0.00000229    0.00335871   -0.01656871
     atom   54 type  1   force =    -0.00000244    0.00335769   -0.01656853
     atom   55 type  1   force =     0.00000238    0.00335855   -0.01656883
     atom   56 type  1   force =    -0.00000008   -0.00160212   -0.00966038
     atom   57 type  1   force =     0.00000196   -0.00160208   -0.00965884
     atom   58 type  1   force =    -0.00000243    0.00335872   -0.01656902
     atom   59 type  1   force =     0.00000237    0.00335781   -0.01656855
     atom   60 type  1   force =     0.00000229    0.00335871   -0.01656871
[...]
     atom  562 type  1   force =    -0.00000028    0.00165091   -0.02672095
     atom  563 type  1   force =     0.00000104    0.00164861   -0.02672426
     atom  564 type  1   force =    -0.00000084    0.00164849   -0.02672415
     atom  565 type  1   force =     0.00000035    0.00165070   -0.02672091
     atom  566 type  1   force =    -0.00000035    0.00165070   -0.02672091
     atom  567 type  1   force =     0.00000099    0.00164847   -0.02672431
     atom  568 type  1   force =    -0.00000097    0.00164851   -0.02672420
     atom  569 type  1   force =    -0.00000086    0.00164857   -0.02672418
     atom  570 type  1   force =     0.00000029    0.00165093   -0.02672091
     atom  571 type  1   force =     0.00000034    0.00165112   -0.02672079
     atom  572 type  1   force =     0.00000086    0.00164857   -0.02672418
     atom  573 type  1   force =    -0.00000099    0.00164847   -0.02672431
     atom  574 type  1   force =    -0.00000032    0.00165100   -0.02672089
     atom  575 type  1   force =     0.00000082    0.00164853   -0.02672422
     atom  576 type  1   force =     0.00000036    0.00165079   -0.02672084

     Total force =     0.269713     Total SCF correction =     0.000520

     General routines

     Parallel routines

   This run was terminated on:   3:34:58  25Sep2021

   JOB DONE.