     Program PWSCF v.6.6 starts on  8Sep2021 at  4:38:42

     R & G space division:  proc/nbgrp/npool/nimage =      96
     Fft bands division:     nmany     =       1
     Reading input from ../inputs/input_ausurf_72

     Current dimensions of program PWSCF are:
     Max number of different atomic species (ntypx) = 10
     Max number of k-points (npk) =  40000
     Max angular momentum in pseudopotentials (lmaxx) =  3

     Subspace diagonalization in iterative solution of the eigenvalue problem:
     one sub-group per band group will be used

     Found symmetry operation: I + ( -0.5000  0.0000  0.0000)
     This is a supercell, fractional translations are disabled

     Title:
      Ausurf

     bravais-lattice index     =            8
     lattice parameter (alat)  =      11.1494  a.u.
     unit-cell volume          =   12888.9871 (a.u.)^3
     number of atoms/cell      =           72
     number of atomic types    =            1
     number of electrons       =       792.00
     number of Kohn-Sham states=          475
     kinetic-energy cutoff     =      40.0000  Ry
     charge density cutoff     =     350.0000  Ry
     convergence threshold     =      1.0E-06
     mixing beta               =       0.7000
     number of iterations used =            8  TF        mixing
     Exchange-correlation=  SLA  PW   PBE  PBE
                           (   1   4   3   4   0   0   0)

     celldm(1)=  11.149384  celldm(2)=   1.732051  celldm(3)=   5.369150
     celldm(4)=   0.000000  celldm(5)=   0.000000  celldm(6)=   0.000000

     crystal axes: (cart. coord. in units of alat)
               a(1) = (   1.000000   0.000000   0.000000 )
               a(2) = (   0.000000   1.732051   0.000000 )
               a(3) = (   0.000000   0.000000   5.369150 )

     reciprocal axes: (cart. coord. in units 2 pi/alat)
               b(1) = (  1.000000  0.000000  0.000000 )
               b(2) = (  0.000000  0.577350  0.000000 )
               b(3) = (  0.000000  0.000000  0.186249 )

     PseudoPot. # 1 for Au read from file:
     /marconi/home/userexternal/czeni000/dft_src/pseudo/Au.pbe-nd-van.UPF
     MD5 check sum: deb5c07af10777505a79e28f5b4b4115
     Pseudo is Ultrasoft + core correction, Zval = 11.0
     Generated by new atomic code, or converted to UPF format
     Using radial grid of  985 points,  3 beta functions with:
                l(1) =   1
                l(2) =   2
                l(3) =   2
     Q(r) pseudized with  8 coefficients,  rinner =    1.100   1.100   1.100
                                                       1.100   1.100

     atomic species   valence    mass     pseudopotential
        Au            11.00   196.96000     Au( 1.00)

      2 Sym. Ops. (no inversion) found

   Cartesian axes

     site n.     atom                  positions (alat units)
         1           Au  tau(   1) = (   0.0000000   0.0000000   0.0000000  )
         2           Au  tau(   2) = (   0.5000000   0.0000000   0.0000000  )
         3           Au  tau(   3) = (   0.0000000   0.8660254   0.0000000  )
         4           Au  tau(   4) = (   0.5000000   0.8660254   0.0000000  )
         5           Au  tau(   5) = (   0.2500000   0.1443376   0.4082483  )
         6           Au  tau(   6) = (   0.7500000   0.1443376   0.4082483  )
         7           Au  tau(   7) = (   0.2500000   1.0103631   0.4082483  )
         8           Au  tau(   8) = (   0.7500000   1.0103631   0.4082483  )
         9           Au  tau(   9) = (   0.5000000   0.5773503   0.4082483  )
        10           Au  tau(  10) = (   0.5000000   1.4433756   0.4082483  )
        11           Au  tau(  11) = (   1.0000000   0.5773503   0.4082483  )
        12           Au  tau(  12) = (   1.0000000   1.4433756   0.4082483  )
        13           Au  tau(  13) = (   0.5000000   0.2886751   0.8164966  )
        14           Au  tau(  14) = (   1.0000000   0.2886751   0.8164966  )
        15           Au  tau(  15) = (   0.2500000   0.7216878   0.8164966  )
        16           Au  tau(  16) = (   0.7500000   0.7216878   0.8164966  )
        17           Au  tau(  17) = (   0.5000000   1.1547005   0.8164966  )
        18           Au  tau(  18) = (   1.0000000   1.1547005   0.8164966  )
        19           Au  tau(  19) = (   0.2500000   1.5877132   0.8164966  )
        20           Au  tau(  20) = (   0.7500000   1.5877132   0.8164966  )
        21           Au  tau(  21) = (   0.0000000   0.0000000   1.2247449  )
        22           Au  tau(  22) = (   0.5000000   0.0000000   1.2247449  )
        23           Au  tau(  23) = (   0.2500000   0.4330127   1.2247449  )
        24           Au  tau(  24) = (   0.5000000   0.8660254   1.2247449  )
        25           Au  tau(  25) = (   0.2500000   1.2990381   1.2247449  )
        26           Au  tau(  26) = (   0.7500000   0.4330127   1.2247449  )
        27           Au  tau(  27) = (   0.7500000   1.2990381   1.2247449  )
        28           Au  tau(  28) = (   0.0000000   0.8660254   1.2247449  )
        29           Au  tau(  29) = (   0.2500000   1.0103631   1.6329932  )
        30           Au  tau(  30) = (   1.0000000   0.5773503   1.6329932  )
        31           Au  tau(  31) = (   0.2500000   0.1443376   1.6329932  )
        32           Au  tau(  32) = (   0.7500000   0.1443376   1.6329932  )
        33           Au  tau(  33) = (   0.7500000   1.0103631   1.6329932  )
        34           Au  tau(  34) = (   0.5000000   0.5773503   1.6329932  )
        35           Au  tau(  35) = (   0.5000000   1.4433756   1.6329932  )
        36           Au  tau(  36) = (   1.0000000   1.4433756   1.6329932  )
        37           Au  tau(  37) = (   0.5000000   0.2886751   2.0412415  )
        38           Au  tau(  38) = (   1.0000000   0.2886751   2.0412415  )
        39           Au  tau(  39) = (   0.2500000   0.7216878   2.0412415  )
        40           Au  tau(  40) = (   0.7500000   0.7216878   2.0412415  )
        41           Au  tau(  41) = (   0.7500000   1.5877132   2.0412415  )
        42           Au  tau(  42) = (   0.5000000   1.1547005   2.0412415  )
        43           Au  tau(  43) = (   1.0000000   1.1547005   2.0412415  )
        44           Au  tau(  44) = (   0.2500000   1.5877132   2.0412415  )
        45           Au  tau(  45) = (   0.0000000   0.0000000   2.4494897  )
        46           Au  tau(  46) = (   0.0000000   0.8660254   2.4494897  )
        47           Au  tau(  47) = (   0.5000000   0.0000000   2.4494897  )
        48           Au  tau(  48) = (   0.5000000   0.8660254   2.4494897  )
        49           Au  tau(  49) = (   0.2500000   0.4330127   2.4494897  )
        50           Au  tau(  50) = (   0.7500000   0.4330127   2.4494897  )
        51           Au  tau(  51) = (   0.2500000   1.2990381   2.4494897  )
        52           Au  tau(  52) = (   0.7500000   1.2990381   2.4494897  )
        53           Au  tau(  53) = (   1.0000000   1.4433756   2.8577380  )
        54           Au  tau(  54) = (   0.2500000   0.1443376   2.8577380  )
        55           Au  tau(  55) = (   0.2500000   1.0103631   2.8577380  )
        56           Au  tau(  56) = (   0.7500000   0.1443376   2.8577380  )
        57           Au  tau(  57) = (   0.7500000   1.0103631   2.8577380  )
        58           Au  tau(  58) = (   0.5000000   0.5773503   2.8577380  )
        59           Au  tau(  59) = (   0.5000000   1.4433756   2.8577380  )
        60           Au  tau(  60) = (   1.0000000   0.5773503   2.8577380  )
        61           Au  tau(  61) = (   0.7500000   1.5877132   3.2659863  )
        62           Au  tau(  62) = (   0.5000000   0.2886751   3.2659863  )
        63           Au  tau(  63) = (   0.5000000   1.1547005   3.2659863  )
        64           Au  tau(  64) = (   1.0000000   0.2886751   3.2659863  )
        65           Au  tau(  65) = (   1.0000000   1.1547005   3.2659863  )
        66           Au  tau(  66) = (   0.2500000   0.7216878   3.2659863  )
        67           Au  tau(  67) = (   0.2500000   1.5877132   3.2659863  )
        68           Au  tau(  68) = (   0.7500000   0.7216878   3.2659863  )
        69           Au  tau(  69) = (   0.2500000   0.4330127   3.6742346  )
        70           Au  tau(  70) = (   0.2500000   1.2990381   3.6742346  )
        71           Au  tau(  71) = (   0.7500000   0.4330127   3.6742346  )
        72           Au  tau(  72) = (   0.7500000   1.2990381   3.6742346  )

     number of k points=    18  Marzari-Vanderbilt smearing, width (Ry)=  0.0500
                       cart. coord. in units 2pi/alat
        k(    1) = (   0.0416667   0.0481125   0.0000000), wk =   0.1111111
        k(    2) = (   0.0416667   0.1443376   0.0000000), wk =   0.1111111
        k(    3) = (   0.0416667   0.2405626   0.0000000), wk =   0.1111111
        k(    4) = (   0.1250000   0.0481125   0.0000000), wk =   0.1111111
        k(    5) = (   0.1250000   0.1443376   0.0000000), wk =   0.1111111
        k(    6) = (   0.1250000   0.2405626   0.0000000), wk =   0.1111111
        k(    7) = (   0.2083333   0.0481125   0.0000000), wk =   0.1111111
        k(    8) = (   0.2083333   0.1443376   0.0000000), wk =   0.1111111
        k(    9) = (   0.2083333   0.2405626   0.0000000), wk =   0.1111111
        k(   10) = (   0.2916667   0.0481125   0.0000000), wk =   0.1111111
        k(   11) = (   0.2916667   0.1443376   0.0000000), wk =   0.1111111
        k(   12) = (   0.2916667   0.2405626   0.0000000), wk =   0.1111111
        k(   13) = (   0.3750000   0.0481125   0.0000000), wk =   0.1111111
        k(   14) = (   0.3750000   0.1443376   0.0000000), wk =   0.1111111
        k(   15) = (   0.3750000   0.2405626   0.0000000), wk =   0.1111111
        k(   16) = (   0.4583333   0.0481125   0.0000000), wk =   0.1111111
        k(   17) = (   0.4583333   0.1443376   0.0000000), wk =   0.1111111
        k(   18) = (   0.4583333   0.2405626   0.0000000), wk =   0.1111111

     Initial potential from superposition of free atoms

     starting charge  791.16394, renormalised to  792.00000

     negative rho (up, down):  1.916E+00 0.000E+00
     Starting wfcs are  648 randomized atomic wfcs

     Self-consistent Calculation

     iteration #  1     ecut=    40.00 Ry     beta= 0.70
     Davidson diagonalization with overlap
     ethr =  1.00E-02,  avg # of iterations =  2.5

     Threshold (ethr) on eigenvalues was too large:
     Diagonalizing with lowered threshold

     Davidson diagonalization with overlap
     ethr =  3.34E-04,  avg # of iterations =  3.0

     negative rho (up, down):  1.820E+00 0.000E+00

     total energy              =   -7346.27208006 Ry
     estimated scf accuracy    <       3.14904378 Ry

[...]

     iteration # 13     ecut=    40.00 Ry     beta= 0.70
     Davidson diagonalization with overlap
     c_bands:  1 eigenvalues not converged
     c_bands:  1 eigenvalues not converged
     ethr =  8.22E-06,  avg # of iterations = 11.6

[...]

     iteration # 19     ecut=    40.00 Ry     beta= 0.70
     Davidson diagonalization with overlap
     c_bands:  1 eigenvalues not converged
     ethr =  4.58E-09,  avg # of iterations =  7.0

[...]

     total energy              =   -7346.35669875 Ry
     estimated scf accuracy    <       0.00000223 Ry

     iteration # 22     ecut=    40.00 Ry     beta= 0.70
     Davidson diagonalization with overlap
     ethr =  2.82E-10,  avg # of iterations =  2.1

[...]

     End of self-consistent calculation

          k = 0.0417 0.0481 0.0000 ( 55126 PWs)   bands (ev):

    -0.8130  -0.4714   0.0254   0.5491   0.6014   0.8361   0.9649   1.1251
     1.2159   1.2463   1.4434   1.5573   1.5648   1.5683   1.6035   1.6142
     1.6194   1.7228   1.8475   1.8505   1.8521   1.8545   1.8641   1.8682
     1.9218   2.0302   2.0336   2.0405   2.1219   2.1226   2.1253   2.1515
     2.1520   2.1635   2.1714   2.2257   2.2292   2.2381   2.2441   2.2806
     2.3147   2.3179   2.3228   2.3337   2.3502   2.3810   2.3915   2.4115
     2.4166   2.4301   2.4406   2.4759   2.4837   2.4887   2.4953   2.5151
     2.5245   2.5462   2.5801   2.6021   2.6233   2.6415   2.6672   2.6688
     2.6846   2.7237   2.7340   2.7590   2.7689   2.7906   2.8246   2.8573
     2.9325   2.9403   2.9612   2.9793   3.0561   3.0694   3.0814   3.0834
     3.1171   3.1479   3.1695   3.1760   3.1946   3.2139   3.2336   3.2615
     3.2911   3.3218   3.3245   3.3319   3.3440   3.3607   3.3695   3.3758
     3.4219   3.4495   3.4593   3.4757   3.4824   3.5090   3.5120   3.5479
     3.5629   3.5670   3.5868   3.6018   3.6075   3.6211   3.6468   3.6481
     3.6594   3.6846   3.6907   3.7320   3.7326   3.7656   3.7743   3.7789
     3.7920   3.7940   3.8014   3.8281   3.8525   3.8649   3.8696   3.8697
     3.8935   3.8952   3.9020   3.9072   3.9192   3.9260   3.9346   3.9388
     3.9494   3.9549   3.9552   3.9610   3.9635   3.9802   3.9877   3.9941
     4.0117   4.0262   4.0425   4.0731   4.0801   4.0867   4.0953   4.0992
     4.1080   4.1102   4.1177   4.1337   4.1399   4.1644   4.1654   4.1656
     4.1743   4.1754   4.1831   4.1889   4.1905   4.2007   4.2067   4.2185
     4.2377   4.2549   4.3003   4.3058   4.3146   4.3184   4.3218   4.3330
     4.3481   4.3578   4.3673   4.3704   4.3807   4.3828   4.3944   4.4297
     4.4314   4.4334   4.4525   4.4661   4.4687   4.4916   4.5098   4.5127
     4.5188   4.5250   4.5282   4.5335   4.5362   4.5973   4.6326   4.6591
     4.6926   4.6991   4.7086   4.7183   4.7252   4.7467   4.7514   4.7646
     4.7728   4.8137   4.8720   4.8810   4.8821   4.8919   4.8962   4.8991
     4.9029   4.9299   4.9597   4.9752   4.9810   4.9913   4.9990   5.0118
     5.0293   5.0307   5.0352   5.0606   5.0822   5.1087   5.1115   5.1243
     5.1281   5.1514   5.1540   5.1907   5.2013   5.2160   5.2235   5.2293
     5.2316   5.2362   5.2607   5.2614   5.2663   5.2703   5.2754   5.2829
     5.2962   5.3189   5.3270   5.3322   5.3343   5.3403   5.3473   5.3511
     5.3543   5.3752   5.4066   5.4199   5.4281   5.4316   5.4608   5.4793
     5.4887   5.4961   5.5163   5.5165   5.5400   5.5455   5.5511   5.5550
     5.5726   5.6062   5.6110   5.6414   5.6480   5.6786   5.6971   5.6999
     5.7303   5.7481   5.7567   5.7622   5.7907   5.8116   5.8307   5.8487
     5.8601   5.8654   5.8930   5.8975   5.9060   5.9255   5.9599   5.9770
     5.9780   5.9954   5.9965   6.0131   6.0743   6.0949   6.0977   6.1173
     6.1181   6.1339   6.1429   6.1658   6.1753   6.1796   6.1961   6.2014
     6.2070   6.2200   6.2315   6.2339   6.2346   6.2530   6.2598   6.2670
     6.2939   6.3036   6.3138   6.3278   6.3361   6.3459   6.3459   6.3476
     6.3608   6.3716   6.3761   6.3777   6.3787   6.3903   6.3922   6.3926
     6.3957   6.3980   6.3989   6.4285   6.4317   6.4324   6.4346   6.4385
     6.4516   6.4562   6.4651   6.4677   6.4865   6.5117   6.5126   6.5346
     6.5459   6.5486   6.5645   6.5713   6.5755   6.5877   6.5883   6.5960
     6.5992   6.6011   6.6086   6.6335   6.6384   6.6526   6.6705   6.6969
     6.6975   6.7195   6.7251   6.7568   6.7608   6.8340   6.8532   6.8764
     6.9127   6.9132   6.9558   7.0798   7.5266   7.6697   7.7395   7.7969
     7.7988   7.8520   8.0375   8.0476   8.1462   8.2409   8.2769   8.3595
     8.4534   8.4653   8.5506   8.5855   8.7137   8.7753   8.7832   8.7920
     8.9271   8.9468   8.9507   9.0403   9.0560   9.1042   9.1964   9.2727
     9.2777   9.2969   9.3530   9.4610   9.5884   9.6441   9.6611   9.7175
     9.7599   9.8306   9.9042   9.9109   9.9361   9.9942   9.9979  10.0743
    10.5294  10.6511  10.8570  10.8657  10.9821  11.0638  11.0767  11.1449
    11.2293  11.2591  11.2644  11.3281  11.3377  11.3824  11.4669  11.7283
    11.8213  11.8825  11.9530  12.0479  12.0589  12.0968  12.3381  12.3802
    12.4489  12.5511  12.6092  12.6161  12.6199  12.6451  12.7913  12.8467
    12.8748  13.2446  13.2843  13.3196  13.3836  13.4640  13.4916  13.6761
    13.6824  13.7254  13.8101  13.8227  13.8831  13.9530  13.9610  13.9952
    13.9976  14.0028  14.0079

[...]

          k = 0.4583 0.2406 0.0000 ( 55107 PWs)   bands (ev):

     0.4900   0.7194   0.7832   0.8244   0.9951   1.0079   1.0909   1.2050
     1.2568   1.3853   1.4637   1.5911   1.6938   1.8290   1.8812   1.9454
     2.1291   2.2124   2.2302   2.2342   2.2906   2.3019   2.3253   2.3294
     2.3449   2.3579   2.3764   2.3991   2.4063   2.4122   2.4230   2.4262
     2.4281   2.4602   2.4838   2.4857   2.5135   2.5375   2.5646   2.5757
     2.5800   2.5880   2.5981   2.5985   2.6207   2.6351   2.6613   2.6941
     2.7148   2.7165   2.7267   2.7429   2.7450   2.7600   2.7757   2.7809
     2.8065   2.8147   2.8344   2.8370   2.8554   2.8595   2.8608   2.9117
     2.9196   2.9373   2.9567   3.0112   3.0219   3.0565   3.0675   3.0803
     3.0827   3.0851   3.1109   3.1307   3.1430   3.1802   3.1965   3.1988
     3.2088   3.2123   3.2232   3.2249   3.2282   3.2628   3.2673   3.3166
     3.3245   3.3291   3.3475   3.3606   3.3732   3.3732   3.3758   3.4096
     3.4138   3.4347   3.4388   3.4389   3.4642   3.4731   3.4748   3.4860
     3.4961   3.5062   3.5150   3.5186   3.5381   3.5389   3.5579   3.5709
     3.5764   3.5919   3.5982   3.6016   3.6210   3.6244   3.6252   3.6259
     3.6619   3.6933   3.6961   3.7151   3.7189   3.7209   3.7304   3.7343
     3.7458   3.7769   3.7904   3.8107   3.8252   3.8493   3.8556   3.8750
     3.9043   3.9165   3.9225   3.9245   3.9307   3.9784   3.9923   4.0057
     4.0125   4.0283   4.0391   4.0392   4.0685   4.0857   4.0913   4.0969
     4.0978   4.1141   4.1202   4.1296   4.1351   4.1424   4.1624   4.1638
     4.1650   4.1711   4.1783   4.1811   4.1971   4.1988   4.1994   4.1997
     4.2101   4.2141   4.2187   4.2308   4.2316   4.2319   4.2372   4.2388
     4.2502   4.2579   4.2678   4.2784   4.2826   4.3152   4.3280   4.3446
     4.3560   4.3625   4.3719   4.3894   4.4065   4.4266   4.4295   4.4344
     4.4625   4.4630   4.4842   4.4911   4.5224   4.5407   4.5500   4.5661
     4.5770   4.5909   4.6079   4.6396   4.6475   4.6521   4.6668   4.6844
     4.6859   4.6991   4.7037   4.7446   4.7456   4.7650   4.7789   4.7974
     4.8058   4.8112   4.8235   4.8281   4.8301   4.8585   4.8722   4.8738
     4.8799   4.8859   4.8883   4.8945   4.9185   4.9463   4.9534   4.9647
     4.9812   4.9913   4.9930   5.0147   5.0228   5.0341   5.0423   5.0586
     5.0606   5.0733   5.0783   5.0865   5.1212   5.1335   5.1352   5.1487
     5.1513   5.1553   5.1611   5.1618   5.1853   5.1901   5.1908   5.2043
     5.2071   5.2220   5.2286   5.2320   5.2392   5.2424   5.2462   5.2585
     5.2645   5.2834   5.2887   5.3121   5.3164   5.3273   5.3312   5.3446
     5.3557   5.3761   5.3813   5.3951   5.3952   5.3990   5.4131   5.4318
     5.4342   5.4462   5.4564   5.4578   5.4593   5.4743   5.4746   5.4950
     5.5088   5.5185   5.5323   5.5361   5.5555   5.5643   5.5680   5.5772
     5.5939   5.6046   5.6220   5.6455   5.6455   5.6472   5.6585   5.6788
     5.6858   5.7124   5.7299   5.7431   5.7495   5.7628   5.7693   5.7724
     5.7767   5.7981   5.8072   5.8105   5.8330   5.8583   5.8601   5.8765
     5.9023   5.9108   5.9467   5.9472   5.9581   5.9635   5.9688   5.9776
     6.0530   6.0565   6.0732   6.0735   6.0891   6.1076   6.1079   6.1086
     6.1233   6.1395   6.1404   6.1506   6.1578   6.1655   6.1820   6.1861
     6.2138   6.2189   6.2334   6.2468   6.2976   6.3309   6.3374   6.3453
     6.3621   6.3650   6.3763   6.3832   6.3850   6.3864   6.3942   6.4091
     6.4164   6.4485   6.4527   6.4780   6.4781   6.4784   6.5016   6.5174
     6.5364   6.5465   6.5481   6.5651   6.6059   6.6347   6.6371   6.6373
     6.6818   6.6918   6.6971   6.7464   6.9341   7.0627   7.1469   7.2576
     7.5254   7.5291   7.5832   7.6861   7.8061   7.8153   7.8494   7.8703
     8.0011   8.1132   8.1925   8.2136   8.2979   8.3495   8.4064   8.4239
     8.5150   8.6486   8.6487   8.6701   8.7882   8.9665   9.0637   9.1464
     9.2312   9.2985   9.3146   9.4963   9.5762   9.6973   9.8240  10.0040
    10.2244  10.2644  10.2982  10.3937  10.5521  10.5645  10.6809  10.9349
    11.0861  11.2965  11.4510  11.5487  11.6655  11.8309  11.9312  12.0008
    12.0633  12.2786  12.3151  12.3561  12.7414  12.7790  12.8734  12.8936
    12.9050  13.0226  13.0937  13.1006  13.1797  13.2280  13.2494  13.2599
    13.2953  13.3791  13.4406  13.4719  13.5043  13.5235  13.7602  13.7660
    13.8191  13.9334  13.9337  13.9392  14.0286  14.0493  14.0698  14.1281
    14.1634  14.2311  14.2435  14.3243  14.3738  14.4022  14.4231  14.5572
    14.6073  14.7702  14.8837

     the Fermi energy is     8.2690 ev

!    total energy              =   -7346.35669902 Ry
     estimated scf accuracy    <       0.00000011 Ry
     smearing contrib. (-TS)   =       0.09487494 Ry
     internal energy E=F+TS    =   -7346.45157396 Ry

     The total energy is F=E-TS. E is the sum of the following terms:
     one-electron contribution =  -33899.32255409 Ry
     hartree contribution      =   17698.44698490 Ry
     xc contribution           =   -3551.00801744 Ry
     ewald contribution        =   12405.43201266 Ry

     convergence has been achieved in  22 iterations

     negative rho (up, down):  1.957E+00 0.000E+00

     Forces acting on atoms (cartesian axes, Ry/au):

     atom    1 type  1   force =     0.00000000   -0.00165500    0.02670373
     atom    2 type  1   force =     0.00000000   -0.00165460    0.02670387
     atom    3 type  1   force =     0.00000000   -0.00165497    0.02670400
     atom    4 type  1   force =     0.00000000   -0.00165503    0.02670378
     atom    5 type  1   force =     0.00000007    0.00336342   -0.01662416
     atom    6 type  1   force =    -0.00000007    0.00336342   -0.01662416
     atom    7 type  1   force =     0.00000003    0.00336338   -0.01662402
     atom    8 type  1   force =    -0.00000003    0.00336338   -0.01662402
     atom    9 type  1   force =     0.00000000   -0.00160350   -0.00972012
     atom   10 type  1   force =     0.00000000   -0.00160306   -0.00972005
     atom   11 type  1   force =     0.00000000   -0.00160345   -0.00972020
     atom   12 type  1   force =     0.00000000   -0.00160326   -0.00971997
     atom   13 type  1   force =     0.00000000    0.00056119   -0.00393778
     atom   14 type  1   force =     0.00000000    0.00056116   -0.00393771
     atom   15 type  1   force =    -0.00000001   -0.00053379    0.00448600
     atom   16 type  1   force =     0.00000001   -0.00053379    0.00448600
     atom   17 type  1   force =     0.00000000    0.00056118   -0.00393765
     atom   18 type  1   force =     0.00000000    0.00056116   -0.00393767
     atom   19 type  1   force =    -0.00000000   -0.00053381    0.00448594
     atom   20 type  1   force =     0.00000000   -0.00053381    0.00448594
     atom   21 type  1   force =     0.00000000    0.00028871   -0.00078622
     atom   22 type  1   force =     0.00000000    0.00028875   -0.00078623
     atom   23 type  1   force =     0.00000002   -0.00045253   -0.00055509
     atom   24 type  1   force =     0.00000000    0.00028872   -0.00078628
     atom   25 type  1   force =    -0.00000000   -0.00045255   -0.00055520
     atom   26 type  1   force =    -0.00000002   -0.00045253   -0.00055509
     atom   27 type  1   force =     0.00000000   -0.00045255   -0.00055520
     atom   28 type  1   force =     0.00000000    0.00028876   -0.00078631
     atom   29 type  1   force =    -0.00000001   -0.00018614    0.00040129
     atom   30 type  1   force =     0.00000000    0.00019737   -0.00057138
     atom   31 type  1   force =     0.00000001   -0.00018614    0.00040128
     atom   32 type  1   force =    -0.00000001   -0.00018614    0.00040128
     atom   33 type  1   force =     0.00000001   -0.00018614    0.00040129
     atom   34 type  1   force =     0.00000000    0.00019732   -0.00057139
     atom   35 type  1   force =     0.00000000    0.00019754   -0.00057136
     atom   36 type  1   force =     0.00000000    0.00019758   -0.00057136
     atom   37 type  1   force =     0.00000000    0.00018785   -0.00040434
     atom   38 type  1   force =     0.00000000    0.00018789   -0.00040431
     atom   39 type  1   force =    -0.00000000   -0.00019659    0.00057060
     atom   40 type  1   force =     0.00000000   -0.00019659    0.00057060
     atom   41 type  1   force =     0.00000000   -0.00019661    0.00057055
     atom   42 type  1   force =     0.00000000    0.00018791   -0.00040427
     atom   43 type  1   force =     0.00000000    0.00018783   -0.00040426
     atom   44 type  1   force =    -0.00000000   -0.00019661    0.00057055
     atom   45 type  1   force =     0.00000000    0.00045317    0.00055980
     atom   46 type  1   force =     0.00000000    0.00045318    0.00055971
     atom   47 type  1   force =     0.00000000    0.00045320    0.00055979
     atom   48 type  1   force =     0.00000000    0.00045316    0.00055970
     atom   49 type  1   force =     0.00000002   -0.00028780    0.00078876
     atom   50 type  1   force =    -0.00000002   -0.00028780    0.00078876
     atom   51 type  1   force =    -0.00000002   -0.00028781    0.00078872
     atom   52 type  1   force =     0.00000002   -0.00028781    0.00078872
     atom   53 type  1   force =     0.00000000    0.00053512   -0.00449099
     atom   54 type  1   force =    -0.00000001   -0.00056058    0.00393037
     atom   55 type  1   force =     0.00000003   -0.00056064    0.00393039
     atom   56 type  1   force =     0.00000001   -0.00056058    0.00393037
     atom   57 type  1   force =    -0.00000003   -0.00056064    0.00393039
     atom   58 type  1   force =     0.00000000    0.00053494   -0.00449104
     atom   59 type  1   force =     0.00000000    0.00053518   -0.00449098
     atom   60 type  1   force =     0.00000000    0.00053498   -0.00449102
     atom   61 type  1   force =     0.00000003    0.00160146    0.00971778
     atom   62 type  1   force =     0.00000000   -0.00336187    0.01662208
     atom   63 type  1   force =     0.00000000   -0.00336192    0.01662216
     atom   64 type  1   force =     0.00000000   -0.00336183    0.01662209
     atom   65 type  1   force =     0.00000000   -0.00336206    0.01662212
     atom   66 type  1   force =    -0.00000003    0.00160155    0.00971784
     atom   67 type  1   force =    -0.00000003    0.00160146    0.00971778
     atom   68 type  1   force =     0.00000003    0.00160155    0.00971784
     atom   69 type  1   force =    -0.00000003    0.00164943   -0.02669040
     atom   70 type  1   force =     0.00000007    0.00164911   -0.02669062
     atom   71 type  1   force =     0.00000003    0.00164943   -0.02669040
     atom   72 type  1   force =    -0.00000007    0.00164911   -0.02669062

     Total force =     0.095420     Total SCF correction =     0.001970

     General routines

     Parallel routines

   This run was terminated on:   4:57: 5   8Sep2021

   JOB DONE.