     Program PWSCF v.6.6 starts on 20Sep2021 at 21:45:37

     K-points division:     npool     =       4
     R & G space division:  proc/nbgrp/npool/nimage =      48
     Fft bands division:     nmany     =       1
     Reading input from ../inputs/input_ausurf_432

     Current dimensions of program PWSCF are:
     Max number of different atomic species (ntypx) = 10
     Max number of k-points (npk) =  40000
     Max angular momentum in pseudopotentials (lmaxx) =  3

     Subspace diagonalization in iterative solution of the eigenvalue problem:
     one sub-group per band group will be used

     Found symmetry operation: I + (  0.1667  0.0000  0.0000)
     This is a supercell, fractional translations are disabled

     Title:
      Ausurf

     bravais-lattice index     =            8
     lattice parameter (alat)  =      33.4482  a.u.
     unit-cell volume          =   77333.9228 (a.u.)^3
     number of atoms/cell      =          432
     number of atomic types    =            1
     number of electrons       =      4752.00
     number of Kohn-Sham states=         2851
     kinetic-energy cutoff     =      40.0000  Ry
     charge density cutoff     =     350.0000  Ry
     convergence threshold     =      1.0E-06
     mixing beta               =       0.7000
     number of iterations used =            8  TF        mixing
     Exchange-correlation=  SLA  PW   PBE  PBE
                           (   1   4   3   4   0   0   0)

     celldm(1)=  33.448152  celldm(2)=   1.154701  celldm(3)=   1.789717
     celldm(4)=   0.000000  celldm(5)=   0.000000  celldm(6)=   0.000000

     crystal axes: (cart. coord. in units of alat)
               a(1) = (   1.000000   0.000000   0.000000 )
               a(2) = (   0.000000   1.154701   0.000000 )
               a(3) = (   0.000000   0.000000   1.789717 )

     reciprocal axes: (cart. coord. in units 2 pi/alat)
               b(1) = (  1.000000  0.000000  0.000000 )
               b(2) = (  0.000000  0.866025  0.000000 )
               b(3) = (  0.000000  0.000000  0.558748 )

     PseudoPot. # 1 for Au read from file:
     /marconi/home/userexternal/czeni000/dft_src/pseudo/Au.pbe-nd-van.UPF
     MD5 check sum: deb5c07af10777505a79e28f5b4b4115
     Pseudo is Ultrasoft + core correction, Zval = 11.0
     Generated by new atomic code, or converted to UPF format
     Using radial grid of  985 points,  3 beta functions with:
                l(1) =   1
                l(2) =   2
                l(3) =   2
     Q(r) pseudized with  8 coefficients,  rinner =    1.100   1.100   1.100
                                                       1.100   1.100

     atomic species   valence    mass     pseudopotential
        Au            11.00   196.96000     Au( 1.00)

      2 Sym. Ops. (no inversion) found

   Cartesian axes

     site n.     atom                  positions (alat units)
         1           Au  tau(   1) = (   0.0000000   0.0000000   0.0000000  )
         2           Au  tau(   2) = (   0.1666667   0.0000000   0.0000000  )
         3           Au  tau(   3) = (   0.3333333   0.0000000   0.0000000  )
         4           Au  tau(   4) = (   0.0000000   0.2886751   0.0000000  )
         5           Au  tau(   5) = (   0.5000000   0.0000000   0.0000000  )
         6           Au  tau(   6) = (   0.1666667   0.2886751   0.0000000  )
         7           Au  tau(   7) = (   0.6666667   0.0000000   0.0000000  )
         8           Au  tau(   8) = (   0.3333333   0.2886751   0.0000000  )
         9           Au  tau(   9) = (   0.8333333   0.0000000   0.0000000  )
        10           Au  tau(  10) = (   0.0000000   0.5773503   0.0000000  )
        11           Au  tau(  11) = (   0.5000000   0.2886751   0.0000000  )
        12           Au  tau(  12) = (   0.1666667   0.5773503   0.0000000  )
        13           Au  tau(  13) = (   0.6666667   0.2886751   0.0000000  )
        14           Au  tau(  14) = (   0.3333333   0.5773503   0.0000000  )
        15           Au  tau(  15) = (   0.8333333   0.2886751   0.0000000  )
        16           Au  tau(  16) = (   0.0000000   0.8660254   0.0000000  )
        17           Au  tau(  17) = (   0.5000000   0.5773503   0.0000000  )
        18           Au  tau(  18) = (   0.1666667   0.8660254   0.0000000  )
        19           Au  tau(  19) = (   0.6666667   0.5773503   0.0000000  )
        20           Au  tau(  20) = (   0.3333333   0.8660254   0.0000000  )
        21           Au  tau(  21) = (   0.8333333   0.5773503   0.0000000  )
        22           Au  tau(  22) = (   0.5000000   0.8660254   0.0000000  )
        23           Au  tau(  23) = (   0.6666667   0.8660254   0.0000000  )
        24           Au  tau(  24) = (   0.8333333   0.8660254   0.0000000  )
        25           Au  tau(  25) = (   0.0833333   0.0481125   0.1360828  )
        26           Au  tau(  26) = (   0.2500000   0.0481125   0.1360828  )
        27           Au  tau(  27) = (   0.4166667   0.0481125   0.1360828  )
        28           Au  tau(  28) = (   0.0833333   0.3367877   0.1360828  )
        29           Au  tau(  29) = (   0.4166667   0.3367877   0.1360828  )
        30           Au  tau(  30) = (   0.5833333   0.0481125   0.1360828  )
        31           Au  tau(  31) = (   0.9166667   0.0481125   0.1360828  )
        32           Au  tau(  32) = (   0.0833333   0.6254628   0.1360828  )
        33           Au  tau(  33) = (   0.2500000   0.3367877   0.1360828  )
        34           Au  tau(  34) = (   0.2500000   0.6254628   0.1360828  )
        35           Au  tau(  35) = (   0.5833333   0.3367877   0.1360828  )
        36           Au  tau(  36) = (   0.7500000   0.0481125   0.1360828  )
        37           Au  tau(  37) = (   0.7500000   0.3367877   0.1360828  )
        38           Au  tau(  38) = (   0.1666667   0.1924501   0.1360828  )
        39           Au  tau(  39) = (   0.1666667   0.4811252   0.1360828  )
        40           Au  tau(  40) = (   0.6666667   0.1924501   0.1360828  )
        41           Au  tau(  41) = (   0.2500000   0.9141379   0.1360828  )
        42           Au  tau(  42) = (   0.4166667   0.6254628   0.1360828  )
        43           Au  tau(  43) = (   0.7500000   0.6254628   0.1360828  )
        44           Au  tau(  44) = (   0.9166667   0.3367877   0.1360828  )
        45           Au  tau(  45) = (   0.3333333   0.1924501   0.1360828  )
        46           Au  tau(  46) = (   0.5000000   0.1924501   0.1360828  )
        47           Au  tau(  47) = (   0.0833333   0.9141379   0.1360828  )
        48           Au  tau(  48) = (   0.4166667   0.9141379   0.1360828  )
        49           Au  tau(  49) = (   0.5833333   0.6254628   0.1360828  )
        50           Au  tau(  50) = (   0.5833333   0.9141379   0.1360828  )
        51           Au  tau(  51) = (   0.9166667   0.6254628   0.1360828  )
        52           Au  tau(  52) = (   0.3333333   0.4811252   0.1360828  )
        53           Au  tau(  53) = (   0.5000000   0.4811252   0.1360828  )
        54           Au  tau(  54) = (   0.5000000   0.7698003   0.1360828  )
        55           Au  tau(  55) = (   0.8333333   0.1924501   0.1360828  )
        56           Au  tau(  56) = (   1.0000000   0.1924501   0.1360828  )
        57           Au  tau(  57) = (   1.0000000   0.4811252   0.1360828  )
        58           Au  tau(  58) = (   0.7500000   0.9141379   0.1360828  )
        59           Au  tau(  59) = (   0.1666667   0.7698003   0.1360828  )
        60           Au  tau(  60) = (   0.3333333   0.7698003   0.1360828  )
[...]
       418           Au  tau( 418) = (   0.2500000   0.1443376   1.2247449  )
       419           Au  tau( 419) = (   0.2500000   0.4330127   1.2247449  )
       420           Au  tau( 420) = (   0.4166667   0.1443376   1.2247449  )
       421           Au  tau( 421) = (   0.4166667   0.7216879   1.2247449  )
       422           Au  tau( 422) = (   0.5833333   0.1443376   1.2247449  )
       423           Au  tau( 423) = (   0.5833333   0.7216879   1.2247449  )
       424           Au  tau( 424) = (   0.7500000   0.1443376   1.2247449  )
       425           Au  tau( 425) = (   0.9166667   0.4330127   1.2247449  )
       426           Au  tau( 426) = (   0.5833333   1.0103630   1.2247449  )
       427           Au  tau( 427) = (   0.7500000   1.0103630   1.2247449  )
       428           Au  tau( 428) = (   0.9166667   1.0103630   1.2247449  )
       429           Au  tau( 429) = (   0.2500000   1.0103630   1.2247449  )
       430           Au  tau( 430) = (   0.4166667   1.0103630   1.2247449  )
       431           Au  tau( 431) = (   0.7500000   0.7216879   1.2247449  )
       432           Au  tau( 432) = (   0.9166667   0.7216879   1.2247449  )

     number of k points=     4  Marzari-Vanderbilt smearing, width (Ry)=  0.0500
                       cart. coord. in units 2pi/alat
        k(    1) = (   0.1250000   0.1082532   0.0000000), wk =   0.5000000
        k(    2) = (   0.1250000   0.3247595   0.0000000), wk =   0.5000000
        k(    3) = (   0.3750000   0.1082532   0.0000000), wk =   0.5000000
        k(    4) = (   0.3750000   0.3247595   0.0000000), wk =   0.5000000

     Initial potential from superposition of free atoms

     starting charge 4746.98365, renormalised to 4752.00000

     negative rho (up, down):  1.152E+01 0.000E+00
     Starting wfcs are 3888 randomized atomic wfcs

     Self-consistent Calculation

     iteration #  1     ecut=    40.00 Ry     beta= 0.70
     Davidson diagonalization with overlap
     ethr =  1.00E-02,  avg # of iterations =  3.0

     Threshold (ethr) on eigenvalues was too large:
     Diagonalizing with lowered threshold

     Davidson diagonalization with overlap
     ethr =  3.34E-04,  avg # of iterations =  3.5

     negative rho (up, down):  1.095E+01 0.000E+00

     total energy              =  -44077.60663687 Ry
     estimated scf accuracy    <      18.95517504 Ry

[...]

     iteration #  6     ecut=    40.00 Ry     beta= 0.70
     Davidson diagonalization with overlap
     c_bands:  2 eigenvalues not converged
     ethr =  3.13E-05,  avg # of iterations = 16.0

[...]

     iteration # 10     ecut=    40.00 Ry     beta= 0.70
     Davidson diagonalization with overlap
     c_bands:  3 eigenvalues not converged
     ethr =  2.94E-05,  avg # of iterations = 19.8

[...]

     total energy              =  -44078.14019164 Ry
     estimated scf accuracy    <       0.00004671 Ry

     iteration # 27     ecut=    40.00 Ry     beta= 0.70
     Davidson diagonalization with overlap
     ethr =  3.63E-10,  avg # of iterations =  2.8

[...]

     End of self-consistent calculation

          k = 0.1250 0.1083 0.0000 (330335 PWs)   bands (ev):

    -0.8184  -0.4825  -0.4766  -0.3731  -0.2665  -0.1471  -0.0894  -0.0570
    -0.0399   0.0202   0.0630   0.1475   0.2078   0.2354   0.2659   0.3414
     0.4005   0.4463   0.4619   0.5185   0.5431   0.5963   0.6023   0.7005
     0.7097   0.7367   0.8850   0.9109   0.9155   0.9201   0.9699   0.9867
     1.0154   1.0412   1.1039   1.1200   1.1347   1.1665   1.1718   1.1994
     1.2427   1.2498   1.2682   1.2863   1.2896   1.2928   1.3021   1.4027
[...]
     1.9476   1.9558   1.9560   1.9571   1.9676   1.9681   1.9804   1.9823
     1.9853   1.9918   1.9989   2.0116   2.0132   2.0161   2.0175   2.0213
     2.0267   2.0280   2.0324   2.0359   2.0414   2.0444   2.0453   2.0456
     2.0516   2.0616   2.0655   2.0682   2.0762   2.0817   2.0937   2.0978
     2.1008   2.1024   2.1189   2.1195   2.1200   2.1233   2.1233   2.1238
     2.1249   2.1254   2.1278   2.1293   2.1378   2.1410   2.1443   2.1504
     2.1510   2.1522   2.1556   2.1572   2.1587   2.1606   2.1643   2.1655
     2.1663   2.1765   2.1788   2.1824   2.1829   2.1958   2.2033   2.2044
     2.2103   2.2121   2.2131   2.2159   2.2189   2.2193   2.2193   2.2198
     2.2233   2.2267   2.2277   2.2327   2.2379   2.2413   2.2436   2.2450
     2.2480   2.2509   2.2580   2.2601   2.2614   2.2636   2.2686   2.2764
     2.2906   2.2921   2.2985   2.2992   2.2999   2.3024   2.3073   2.3081
     2.3087   2.3098   2.3108   2.3115   2.3125   2.3157   2.3202   2.3210
     2.3250   2.3256   2.3263   2.3283   2.3285   2.3335   2.3345   2.3437
     2.3467   2.3515   2.3534   2.3555   2.3599   2.3634   2.3671   2.3723
     2.3729   2.3757   2.3860   2.3866   2.3883   2.3898   2.3906   2.3925
     2.3942   2.3992   2.4024   2.4125   2.4128   2.4131   2.4159   2.4162
     2.4259   2.4266   2.4310   2.4341   2.4420   2.4435   2.4444   2.4464
     2.4470   2.4484   2.4498   2.4501   2.4522   2.4523   2.4560   2.4606
     2.4653   2.4730   2.4741   2.4752   2.4767   2.4824   2.4851   2.4853
     2.4857   2.4891   2.4913   2.4954   2.4984   2.5039   2.5101   2.5117
     2.5120   2.5125   2.5185   2.5194   2.5201   2.5233   2.5234   2.5249
     2.5343   2.5370   2.5381   2.5416   2.5442   2.5459   2.5473   2.5515
     2.5542   2.5571   2.5723   2.5760   2.5781   2.5782   2.5785   2.5815
     2.5820   2.5824   2.5848   2.5852   2.5874   2.5937   2.5948   2.5952
     2.5963   2.5969   2.6019   2.6045   2.6059   2.6117   2.6177   2.6264
     2.6266   2.6285   2.6328   2.6331   2.6357   2.6362   2.6379   2.6393
     2.6446   2.6524   2.6613   2.6643   2.6654   2.6670   2.6742   2.6754
     2.6760   2.6803   2.6818   2.6827   2.6894   2.6905   2.6917   2.6959
     2.6971   2.7013   2.7025   2.7073   2.7140   2.7152   2.7153   2.7208
     2.7230   2.7255   2.7259   2.7268   2.7273   2.7299   2.7348   2.7369
     2.7400   2.7412   2.7412   2.7442   2.7445   2.7526   2.7544   2.7588
     2.7647   2.7674   2.7695   2.7700   2.7801   2.7803   2.7821   2.7830
     2.7830   2.7834   2.7868   2.7885   2.7889   2.7892   2.7953   2.7991
     2.8000   2.8038   2.8114   2.8138   2.8150   2.8170   2.8176   2.8187
     2.8214   2.8273   2.8288   2.8377   2.8402   2.8473   2.8482   2.8508
     2.8520   2.8536   2.8539   2.8599   2.8610   2.8611   2.8612   2.8628
     2.8700   2.8754   2.8829   2.8941   2.8960   2.8971   2.8990   2.9020
     2.9024   2.9041   2.9044   2.9057   2.9091   2.9143   2.9146   2.9154
     2.9251   2.9272   2.9307   2.9314   2.9333   2.9341   2.9357   2.9361
     2.9447   2.9503   2.9633   2.9648   2.9659   2.9662   2.9686   2.9723
     2.9728   2.9767   2.9777   2.9985   3.0082   3.0100   3.0125   3.0132
     3.0164   3.0280   3.0282   3.0361   3.0378   3.0380   3.0393   3.0408
     3.0424   3.0545   3.0548   3.0622   3.0645   3.0685   3.0722   3.0799
     3.0808   3.0824   3.0852   3.0853   3.0921   3.0974   3.0978   3.0979
     3.0988   3.0993   3.1052   3.1093   3.1141   3.1180   3.1238   3.1262
[...]
    13.3825  13.3861  13.3906  13.4017  13.4137  13.4186  13.4280  13.4304
    13.4327  13.4658  13.4717  13.4739  13.5036  13.5065  13.5114  13.5342
    13.5500  13.5700  13.5753  13.5875  13.5921  13.6079  13.6098  13.6201
    13.6205  13.6516  13.6603  13.6740  13.6855  13.6858  13.6957  13.7062
    13.7164  13.7211  13.7296  13.7549  13.7641  13.7696  13.7714  13.7716
    13.7758  13.8007  13.8184  13.8185  13.8195  13.8247  13.8291  13.8303
    13.8327  13.8370  13.8622  13.8961  13.9033  13.9040  13.9134  13.9154
    13.9265  13.9380  13.9581  13.9732  13.9908  13.9954  13.9967  14.0052
    14.0244  14.0306  14.0311  14.0544  14.0577  14.0735  14.0856  14.1161
    14.1181  14.1198  14.1506  14.1517  14.1523  14.1569  14.1589  14.1630
    14.1635  14.1651  14.1876  14.1922  14.2051  14.2512  14.2534  14.2829
    14.2912  14.2962  14.3037  14.3122  14.3289  14.3300  14.3469  14.3720
    14.3825  14.3840  14.4029  14.4036  14.4066  14.4104  14.4234  14.4263
    14.4580  14.4596  14.4623  14.5045  14.5125  14.5457  14.5786  14.6063
    14.6328  14.6486  14.6611

[...]

          k = 0.3750 0.3248 0.0000 (330443 PWs)   bands (ev):

    -0.6861  -0.5743  -0.5375  -0.4278  -0.3465  -0.2368  -0.2006  -0.0934
     0.0634   0.1479   0.2000   0.2548   0.2903   0.2943   0.3566   0.3810
     0.3833   0.3940   0.4901   0.5122   0.6017   0.6589   0.6676   0.6844
     0.7226   0.7389   0.7859   0.8273   0.8434   0.8627   0.8964   0.9511
     0.9634   0.9669   1.0145   1.0492   1.0956   1.1203   1.1373   1.1487
     1.1574   1.2137   1.2457   1.2659   1.3388   1.3491   1.3597   1.3765
     1.3835   1.3849   1.3861   1.4025   1.4064   1.4722   1.4835   1.4861
     1.5010   1.5217   1.5584   1.5635   1.5731   1.5770   1.5791   1.6009
     1.6090   1.6097   1.6152   1.6302   1.6309   1.6520   1.6634   1.6705
     1.6739   1.6899   1.6900   1.6926   1.6968   1.7019   1.7103   1.7105
     1.7256   1.7654   1.7737   1.7766   1.7780   1.7790   1.7854   1.7858
     1.7921   1.7979   1.8103   1.8152   1.8175   1.8222   1.8255   1.8341
     1.8395   1.8488   1.8567   1.8728   1.8780   1.8845   1.8851   1.8929
     1.8934   1.8952   1.8997   1.9202   1.9210   1.9228   1.9262   1.9302
     1.9330   1.9368   1.9461   1.9540   1.9557   1.9583   1.9600   1.9620
     1.9666   1.9720   1.9915   2.0007   2.0020   2.0064   2.0116   2.0199
     2.0212   2.0288   2.0408   2.0439   2.0518   2.0554   2.0596   2.0597
     2.0608   2.0673   2.0702   2.0746   2.0772   2.0799   2.0836   2.0915
     2.0941   2.1049   2.1081   2.1135   2.1169   2.1232   2.1234   2.1271
     2.1297   2.1301   2.1347   2.1363   2.1368   2.1400   2.1572   2.1574
     2.1638   2.1666   2.1763   2.1866   2.1915   2.1924   2.1987   2.2005
     2.2019   2.2075   2.2104   2.2118   2.2129   2.2247   2.2265   2.2269
     2.2274   2.2321   2.2330   2.2334   2.2354   2.2360   2.2452   2.2466
     2.2504   2.2536   2.2553   2.2601   2.2654   2.2665   2.2685   2.2702
     2.2726   2.2732   2.2735   2.2779   2.2815   2.2819   2.2820   2.2846
     2.2881   2.2883   2.2976   2.3016   2.3052   2.3062   2.3062   2.3078
     2.3103   2.3113   2.3144   2.3186   2.3207   2.3227   2.3230   2.3310
     2.3354   2.3402   2.3403   2.3415   2.3440   2.3464   2.3506   2.3510
     2.3542   2.3573   2.3601   2.3640   2.3652   2.3664   2.3680   2.3686
     2.3702   2.3745   2.3753   2.3756   2.3764   2.3803   2.3898   2.4012
     2.4040   2.4043   2.4052   2.4141   2.4148   2.4195   2.4203   2.4207
     2.4224   2.4231   2.4236   2.4245   2.4297   2.4301   2.4335   2.4411
     2.4441   2.4452   2.4456   2.4458   2.4483   2.4491   2.4493   2.4520
     2.4537   2.4564   2.4601   2.4602   2.4615   2.4654   2.4683   2.4704
     2.4727   2.4849   2.4896   2.4953   2.4957   2.4963   2.4963   2.4965
     2.5005   2.5012   2.5069   2.5083   2.5101   2.5167   2.5210   2.5238
     2.5263   2.5290   2.5296   2.5307   2.5332   2.5359   2.5374   2.5411
     2.5439   2.5445   2.5457   2.5505   2.5533   2.5554   2.5566   2.5629
     2.5675   2.5680   2.5713   2.5742   2.5751   2.5752   2.5829   2.5830
     2.5834   2.5840   2.5851   2.5883   2.5916   2.6023   2.6060   2.6083
     2.6091   2.6115   2.6117   2.6134   2.6139   2.6201   2.6332   2.6364
     2.6375   2.6416   2.6438   2.6454   2.6513   2.6543   2.6589   2.6660
     2.6715   2.6726   2.6737   2.6767   2.6787   2.6790   2.6815   2.6832
     2.6854   2.6878   2.6883   2.6923   2.6928   2.6954   2.6962   2.7090
     2.7107   2.7113   2.7140   2.7142   2.7270   2.7304   2.7307   2.7313
     2.7332   2.7361   2.7393   2.7399   2.7411   2.7430   2.7456   2.7481
     2.7579   2.7607   2.7613   2.7619   2.7630   2.7675   2.7681   2.7691
     2.7732   2.7781   2.7786   2.7791   2.7810   2.7852   2.7868   2.7887
     2.7924   2.7941   2.7965   2.7967   2.7995   2.8079   2.8083   2.8087
     2.8087   2.8136   2.8146   2.8163   2.8166   2.8175   2.8206   2.8214
     2.8238   2.8274   2.8316   2.8387   2.8401   2.8402   2.8465   2.8493
     2.8530   2.8633   2.8635   2.8650   2.8700   2.8704   2.8731   2.8776
     2.8777   2.8798   2.8854   2.8908   2.8972   2.9003   2.9027   2.9089
     2.9098   2.9110   2.9150   2.9206   2.9231   2.9396   2.9400   2.9618
     2.9631   2.9655   2.9663   2.9728   2.9743   2.9780   2.9876   2.9880
     2.9935   2.9988   2.9993   3.0067   3.0076   3.0144   3.0161   3.0161
     3.0169   3.0215   3.0251   3.0256   3.0326   3.0413   3.0413   3.0479
     3.0506   3.0619   3.0628   3.0639   3.0655   3.0712   3.0824   3.0824
     3.0848   3.0869   3.0954   3.0956   3.0976   3.0989   3.1010   3.1011
     3.1017   3.1122   3.1135   3.1165   3.1181   3.1224   3.1259   3.1289
[...]
    13.3938  13.3961  13.4080  13.4107  13.4375  13.4743  13.4791  13.4815
    13.4893  13.4928  13.4961  13.5147  13.5230  13.5238  13.5368  13.5487
    13.5490  13.5581  13.5686  13.5821  13.5850  13.5903  13.6053  13.6391
    13.6447  13.6710  13.6793  13.6969  13.7056  13.7062  13.7082  13.7130
    13.7485  13.7490  13.7608  13.7640  13.7697  13.7714  13.7719  13.8011
    13.8112  13.8266  13.8525  13.8665  13.8670  13.8711  13.8789  13.8886
    13.8888  13.8914  13.9077  13.9270  13.9383  13.9510  13.9629  13.9716
    14.0426  14.0492  14.0540  14.0791  14.0847  14.0899  14.0904  14.1266
    14.1282  14.1420  14.1537  14.1561  14.1599  14.1621  14.1677  14.1760
    14.1876  14.1948  14.2104  14.2200  14.2292  14.2294  14.2326  14.2396
    14.2527  14.2673  14.2690  14.2690  14.2990  14.3172  14.3422  14.3438
    14.3487  14.3542  14.3606  14.3686  14.4008  14.4186  14.4226  14.4264
    14.4286  14.4334  14.4477  14.4520  14.4646  14.4748  14.4953  14.4982
    14.5124  14.5306  14.5437  14.5736  14.6049  14.6095  14.6347  14.6424
    14.6451  14.6524  14.6648

     the Fermi energy is     8.2692 ev

!    total energy              =  -44078.14019490 Ry
     estimated scf accuracy    <       0.00000053 Ry
     smearing contrib. (-TS)   =       0.56874647 Ry
     internal energy E=F+TS    =  -44078.70894137 Ry

     The total energy is F=E-TS. E is the sum of the following terms:
     one-electron contribution = -203395.28504512 Ry
     hartree contribution      =  106190.03352424 Ry
     xc contribution           =  -21306.04952332 Ry
     ewald contribution        =   74432.59210283 Ry

     convergence has been achieved in  27 iterations

     negative rho (up, down):  1.175E+01 0.000E+00

     Forces acting on atoms (cartesian axes, Ry/au):

     atom    1 type  1   force =     0.00000000   -0.00165314    0.02672804
     atom    2 type  1   force =    -0.00000093   -0.00164978    0.02673586
     atom    3 type  1   force =     0.00000108   -0.00164975    0.02673592
     atom    4 type  1   force =     0.00000000   -0.00165296    0.02672779
     atom    5 type  1   force =     0.00000000   -0.00165308    0.02672780
     atom    6 type  1   force =    -0.00000124   -0.00164975    0.02673565
     atom    7 type  1   force =    -0.00000108   -0.00164975    0.02673592
     atom    8 type  1   force =     0.00000094   -0.00164969    0.02673581
     atom    9 type  1   force =     0.00000093   -0.00164978    0.02673586
     atom   10 type  1   force =     0.00000000   -0.00165301    0.02672772
     atom   11 type  1   force =     0.00000000   -0.00165294    0.02672791
     atom   12 type  1   force =    -0.00000116   -0.00164992    0.02673567
     atom   13 type  1   force =    -0.00000094   -0.00164969    0.02673581
     atom   14 type  1   force =     0.00000108   -0.00164991    0.02673565
     atom   15 type  1   force =     0.00000124   -0.00164975    0.02673565
     atom   16 type  1   force =     0.00000000   -0.00165314    0.02672767
     atom   17 type  1   force =     0.00000000   -0.00165309    0.02672783
     atom   18 type  1   force =    -0.00000109   -0.00165003    0.02673543
     atom   19 type  1   force =    -0.00000108   -0.00164991    0.02673565
     atom   20 type  1   force =     0.00000106   -0.00164990    0.02673578
     atom   21 type  1   force =     0.00000116   -0.00164992    0.02673567
     atom   22 type  1   force =     0.00000000   -0.00165304    0.02672819
     atom   23 type  1   force =    -0.00000106   -0.00164990    0.02673578
     atom   24 type  1   force =     0.00000109   -0.00165003    0.02673543
     atom   25 type  1   force =     0.00000021    0.00335749   -0.01651564
     atom   26 type  1   force =    -0.00000007    0.00335860   -0.01651731
     atom   27 type  1   force =    -0.00000032    0.00335751   -0.01651554
     atom   28 type  1   force =     0.00000029    0.00335763   -0.01651572
     atom   29 type  1   force =    -0.00000031    0.00335756   -0.01651557
     atom   30 type  1   force =     0.00000032    0.00335751   -0.01651554
     atom   31 type  1   force =    -0.00000021    0.00335749   -0.01651564
     atom   32 type  1   force =     0.00000024    0.00335759   -0.01651580
     atom   33 type  1   force =    -0.00000011    0.00335872   -0.01651738
     atom   34 type  1   force =     0.00000000    0.00335868   -0.01651747
     atom   35 type  1   force =     0.00000031    0.00335756   -0.01651557
     atom   36 type  1   force =     0.00000007    0.00335860   -0.01651731
     atom   37 type  1   force =     0.00000011    0.00335872   -0.01651738
     atom   38 type  1   force =    -0.00000065   -0.00160165   -0.00961409
     atom   39 type  1   force =    -0.00000069   -0.00160138   -0.00961423
     atom   40 type  1   force =    -0.00000057   -0.00160157   -0.00961410
     atom   41 type  1   force =    -0.00000002    0.00335867   -0.01651730
     atom   42 type  1   force =    -0.00000033    0.00335757   -0.01651579
     atom   43 type  1   force =    -0.00000000    0.00335868   -0.01651747
     atom   44 type  1   force =    -0.00000029    0.00335763   -0.01651572
     atom   45 type  1   force =     0.00000057   -0.00160157   -0.00961410
     atom   46 type  1   force =     0.00000000   -0.00160242   -0.00960770
     atom   47 type  1   force =     0.00000031    0.00335751   -0.01651570
     atom   48 type  1   force =    -0.00000025    0.00335747   -0.01651569
     atom   49 type  1   force =     0.00000033    0.00335757   -0.01651579
     atom   50 type  1   force =     0.00000025    0.00335747   -0.01651569
     atom   51 type  1   force =    -0.00000024    0.00335759   -0.01651580
     atom   52 type  1   force =     0.00000059   -0.00160136   -0.00961425
     atom   53 type  1   force =     0.00000000   -0.00160231   -0.00960785
     atom   54 type  1   force =     0.00000000   -0.00160255   -0.00960794
     atom   55 type  1   force =     0.00000065   -0.00160165   -0.00961409
     atom   56 type  1   force =     0.00000000   -0.00160246   -0.00960780
     atom   57 type  1   force =     0.00000000   -0.00160227   -0.00960804
     atom   58 type  1   force =     0.00000002    0.00335867   -0.01651730
     atom   59 type  1   force =    -0.00000062   -0.00160173   -0.00961423
     atom   60 type  1   force =     0.00000055   -0.00160171   -0.00961419
[...]
     atom  418 type  1   force =     0.00000006    0.00164781   -0.02671177
     atom  419 type  1   force =     0.00000002    0.00164725   -0.02671199
     atom  420 type  1   force =     0.00000038    0.00164822   -0.02671805
     atom  421 type  1   force =     0.00000027    0.00164776   -0.02671833
     atom  422 type  1   force =    -0.00000038    0.00164822   -0.02671805
     atom  423 type  1   force =    -0.00000027    0.00164776   -0.02671833
     atom  424 type  1   force =    -0.00000006    0.00164781   -0.02671177
     atom  425 type  1   force =     0.00000007    0.00164761   -0.02671803
     atom  426 type  1   force =    -0.00000026    0.00164834   -0.02671823
     atom  427 type  1   force =     0.00000000    0.00164803   -0.02671241
     atom  428 type  1   force =     0.00000010    0.00164824   -0.02671852
     atom  429 type  1   force =    -0.00000000    0.00164803   -0.02671241
     atom  430 type  1   force =     0.00000026    0.00164834   -0.02671823
     atom  431 type  1   force =    -0.00000024    0.00164752   -0.02671248
     atom  432 type  1   force =     0.00000025    0.00164776   -0.02671865

     Total force =     0.233277     Total SCF correction =     0.003558

     General routines

     Parallel routines

   This run was terminated on:  22:49: 1  20Sep2021

   JOB DONE.