     Program PWSCF v.6.6 starts on  8Sep2021 at  2: 6:46

     R & G space division:  proc/nbgrp/npool/nimage =      96
     Fft bands division:     nmany     =       1
     Reading input from ../inputs/input_ausurf_18

     Current dimensions of program PWSCF are:
     Max number of different atomic species (ntypx) = 10
     Max number of k-points (npk) =  40000
     Max angular momentum in pseudopotentials (lmaxx) =  3

     Subspace diagonalization in iterative solution of the eigenvalue problem:
     one sub-group per band group will be used

     Title:
      Ausurf

     bravais-lattice index     =            8
     lattice parameter (alat)  =       5.5747  a.u.
     unit-cell volume          =    3222.2468 (a.u.)^3
     number of atoms/cell      =           18
     number of atomic types    =            1
     number of electrons       =       198.00
     number of Kohn-Sham states=          119
     kinetic-energy cutoff     =      40.0000  Ry
     charge density cutoff     =     350.0000  Ry
     convergence threshold     =      1.0E-06
     mixing beta               =       0.7000
     number of iterations used =            8  TF        mixing
     Exchange-correlation=  SLA  PW   PBE  PBE
                           (   1   4   3   4   0   0   0)

     celldm(1)=   5.574692  celldm(2)=   1.732051  celldm(3)=  10.738300
     celldm(4)=   0.000000  celldm(5)=   0.000000  celldm(6)=   0.000000

     crystal axes: (cart. coord. in units of alat)
               a(1) = (   1.000000   0.000000   0.000000 )
               a(2) = (   0.000000   1.732051   0.000000 )
               a(3) = (   0.000000   0.000000  10.738300 )

     reciprocal axes: (cart. coord. in units 2 pi/alat)
               b(1) = (  1.000000  0.000000  0.000000 )
               b(2) = (  0.000000  0.577350  0.000000 )
               b(3) = (  0.000000  0.000000  0.093125 )

     PseudoPot. # 1 for Au read from file:
     /marconi/home/userexternal/czeni000/dft_src/pseudo/Au.pbe-nd-van.UPF
     MD5 check sum: deb5c07af10777505a79e28f5b4b4115
     Pseudo is Ultrasoft + core correction, Zval = 11.0
     Generated by new atomic code, or converted to UPF format
     Using radial grid of  985 points,  3 beta functions with:
                l(1) =   1
                l(2) =   2
                l(3) =   2
     Q(r) pseudized with  8 coefficients,  rinner =    1.100   1.100   1.100
                                                       1.100   1.100

     atomic species   valence    mass     pseudopotential
        Au            11.00   196.96000     Au( 1.00)

      2 Sym. Ops. (no inversion) found

   Cartesian axes

     site n.     atom                  positions (alat units)
         1           Au  tau(   1) = (   0.0000000   0.0000000   0.0000000  )
         2           Au  tau(   2) = (   0.5000000   0.2886753   0.8164966  )
         3           Au  tau(   3) = (   1.0000000   1.1547007   0.8164966  )
         4           Au  tau(   4) = (   1.0000000   0.5773502   1.6329932  )
         5           Au  tau(   5) = (   0.5000000   1.4433756   1.6329932  )
         6           Au  tau(   6) = (   0.0000000   0.0000000   2.4494898  )
         7           Au  tau(   7) = (   0.5000000   0.8660254   2.4494898  )
         8           Au  tau(   8) = (   0.5000000   0.2886753   3.2659864  )
         9           Au  tau(   9) = (   1.0000000   1.1547007   3.2659864  )
        10           Au  tau(  10) = (   1.0000000   0.5773502   4.0824831  )
        11           Au  tau(  11) = (   0.5000000   1.4433756   4.0824831  )
        12           Au  tau(  12) = (   0.0000000   0.0000000   4.8989793  )
        13           Au  tau(  13) = (   0.5000000   0.8660254   4.8989793  )
        14           Au  tau(  14) = (   0.5000000   0.2886753   5.7154759  )
        15           Au  tau(  15) = (   1.0000000   1.1547007   5.7154759  )
        16           Au  tau(  16) = (   1.0000000   0.5773502   6.5319725  )
        17           Au  tau(  17) = (   0.5000000   1.4433756   6.5319725  )
        18           Au  tau(  18) = (   0.5000000   0.8660254   7.3484692  )

     number of k points=    48  Marzari-Vanderbilt smearing, width (Ry)=  0.0500
                       cart. coord. in units 2pi/alat
        k(    1) = (   0.0312500   0.0240563   0.0000000), wk =   0.0416667
        k(    2) = (   0.0312500   0.0721688   0.0000000), wk =   0.0416667
        k(    3) = (   0.0312500   0.1202813   0.0000000), wk =   0.0416667
        k(    4) = (   0.0312500   0.1683938   0.0000000), wk =   0.0416667
        k(    5) = (   0.0312500   0.2165064   0.0000000), wk =   0.0416667
        k(    6) = (   0.0312500   0.2646189   0.0000000), wk =   0.0416667
        k(    7) = (   0.0937500   0.0240563   0.0000000), wk =   0.0416667
        k(    8) = (   0.0937500   0.0721688   0.0000000), wk =   0.0416667
        k(    9) = (   0.0937500   0.1202813   0.0000000), wk =   0.0416667
        k(   10) = (   0.0937500   0.1683938   0.0000000), wk =   0.0416667
        k(   11) = (   0.0937500   0.2165064   0.0000000), wk =   0.0416667
        k(   12) = (   0.0937500   0.2646189   0.0000000), wk =   0.0416667
        k(   13) = (   0.1562500   0.0240563   0.0000000), wk =   0.0416667
        k(   14) = (   0.1562500   0.0721688   0.0000000), wk =   0.0416667
        k(   15) = (   0.1562500   0.1202813   0.0000000), wk =   0.0416667
        k(   16) = (   0.1562500   0.1683938   0.0000000), wk =   0.0416667
        k(   17) = (   0.1562500   0.2165064   0.0000000), wk =   0.0416667
        k(   18) = (   0.1562500   0.2646189   0.0000000), wk =   0.0416667
        k(   19) = (   0.2187500   0.0240563   0.0000000), wk =   0.0416667
        k(   20) = (   0.2187500   0.0721688   0.0000000), wk =   0.0416667
        k(   21) = (   0.2187500   0.1202813   0.0000000), wk =   0.0416667
        k(   22) = (   0.2187500   0.1683938   0.0000000), wk =   0.0416667
        k(   23) = (   0.2187500   0.2165064   0.0000000), wk =   0.0416667
        k(   24) = (   0.2187500   0.2646189   0.0000000), wk =   0.0416667
        k(   25) = (   0.2812500   0.0240563   0.0000000), wk =   0.0416667
        k(   26) = (   0.2812500   0.0721688   0.0000000), wk =   0.0416667
        k(   27) = (   0.2812500   0.1202813   0.0000000), wk =   0.0416667
        k(   28) = (   0.2812500   0.1683938   0.0000000), wk =   0.0416667
        k(   29) = (   0.2812500   0.2165064   0.0000000), wk =   0.0416667
        k(   30) = (   0.2812500   0.2646189   0.0000000), wk =   0.0416667
        k(   31) = (   0.3437500   0.0240563   0.0000000), wk =   0.0416667
        k(   32) = (   0.3437500   0.0721688   0.0000000), wk =   0.0416667
        k(   33) = (   0.3437500   0.1202813   0.0000000), wk =   0.0416667
        k(   34) = (   0.3437500   0.1683938   0.0000000), wk =   0.0416667
        k(   35) = (   0.3437500   0.2165064   0.0000000), wk =   0.0416667
        k(   36) = (   0.3437500   0.2646189   0.0000000), wk =   0.0416667
        k(   37) = (   0.4062500   0.0240563   0.0000000), wk =   0.0416667
        k(   38) = (   0.4062500   0.0721688   0.0000000), wk =   0.0416667
        k(   39) = (   0.4062500   0.1202813   0.0000000), wk =   0.0416667
        k(   40) = (   0.4062500   0.1683938   0.0000000), wk =   0.0416667
        k(   41) = (   0.4062500   0.2165064   0.0000000), wk =   0.0416667
        k(   42) = (   0.4062500   0.2646189   0.0000000), wk =   0.0416667
        k(   43) = (   0.4687500   0.0240563   0.0000000), wk =   0.0416667
        k(   44) = (   0.4687500   0.0721688   0.0000000), wk =   0.0416667
        k(   45) = (   0.4687500   0.1202813   0.0000000), wk =   0.0416667
        k(   46) = (   0.4687500   0.1683938   0.0000000), wk =   0.0416667
        k(   47) = (   0.4687500   0.2165064   0.0000000), wk =   0.0416667
        k(   48) = (   0.4687500   0.2646189   0.0000000), wk =   0.0416667

     Initial potential from superposition of free atoms

     starting charge  197.79099, renormalised to  198.00000

     negative rho (up, down):  4.791E-01 0.000E+00
     Starting wfcs are  162 randomized atomic wfcs

     Self-consistent Calculation

     iteration #  1     ecut=    40.00 Ry     beta= 0.70
     Davidson diagonalization with overlap
     ethr =  1.00E-02,  avg # of iterations =  2.5

     Threshold (ethr) on eigenvalues was too large:
     Diagonalizing with lowered threshold

     Davidson diagonalization with overlap
     ethr =  3.36E-04,  avg # of iterations =  2.3

     negative rho (up, down):  4.551E-01 0.000E+00

     total energy              =   -1836.56888410 Ry
     estimated scf accuracy    <       0.78622010 Ry

[...]

     iteration #  6     ecut=    40.00 Ry     beta= 0.70
     Davidson diagonalization with overlap
     c_bands:  1 eigenvalues not converged
     ethr =  3.16E-05,  avg # of iterations =  6.9

[...]

     iteration # 18     ecut=    40.00 Ry     beta= 0.70
     Davidson diagonalization with overlap
     ethr =  6.95E-09,  avg # of iterations =  7.0

[...]

     total energy              =   -1836.58919175 Ry
     estimated scf accuracy    <       0.00000456 Ry

     iteration # 19     ecut=    40.00 Ry     beta= 0.70
     Davidson diagonalization with overlap
     c_bands:  1 eigenvalues not converged
     ethr =  2.30E-09,  avg # of iterations =  3.9

[...]

     End of self-consistent calculation

          k = 0.0312 0.0241 0.0000 ( 13817 PWs)   bands (ev):

    -0.8011  -0.4593   0.0372   0.6129   1.1365   1.4544   1.5754   1.5792
     1.6242   1.8589   1.8742   2.0435   2.1316   2.1745   2.2404   2.3284
     2.4864   2.4944   2.6715   3.0592   3.2677   3.3515   3.5638   3.7278
     3.7577   3.7648   3.8464   3.8892   3.8930   3.9112   3.9266   3.9331
     3.9602   3.9677   3.9827   4.0195   4.0410   4.0740   4.0857   4.0980
     4.1257   4.1710   4.1718   4.1775   4.2870   4.3098   4.3284   4.3542
     4.3702   4.3843   4.4978   4.5284   4.7022   4.7153   4.9057   5.0359
     5.1383   5.1743   5.1892   5.2072   5.2695   5.2768   5.2977   5.3375
     5.3425   5.4123   5.5004   5.5194   5.6297   5.6555   5.6743   5.7693
     5.8059   5.8524   5.9560   5.9941   6.0226   6.0635   6.1344   6.1966
     6.2211   6.2526   6.2911   6.3354   6.3406   6.3738   6.4055   6.4247
     6.4516   6.4867   6.5353   6.5703   6.5921   6.6080   6.6197   6.6369
     6.7413   6.7547   7.1429   7.9030   8.3910   8.7351   8.9551   9.0739
     9.3101   9.3200   9.6871   9.9244  10.0168  11.1478  11.3461  11.4774
    11.8938  12.0532  12.6311  12.7728  13.5048  13.8069  13.9589

[...]

          k = 0.4688 0.2646 0.0000 ( 13756 PWs)   bands (ev):

     1.6019   1.6258   1.8493   1.8529   1.8613   1.8751   2.0325   2.0480
     2.1270   2.1276   2.1501   2.1786   2.2279   2.2465   2.3191   2.3239
     2.4183   2.4380   2.4934   2.5029   2.6691   2.6927   3.0689   3.0898
     3.4471   3.4620   3.6465   3.6631   3.7779   3.7977   3.8673   3.8745
     3.9502   3.9587   4.1034   4.1085   4.1831   4.1907   4.4171   4.4417
     4.4674   4.4955   4.5326   4.5377   4.8762   4.9020   4.9509   4.9708
     5.0059   5.0320   5.2553   5.2645   5.3423   5.3774   5.5070   5.5593
     5.7375   5.7487   5.8379   5.8548   5.9730   6.0048   6.1595   6.1669
     6.1915   6.2349   6.2492   6.2625   6.2839   6.3040   6.3356   6.3391
     6.3632   6.3687   6.3840   6.4206   6.4246   6.4449   6.4503   6.4633
     6.5058   6.5084   6.5537   6.5664   6.6386   6.6639   6.6912   6.6929
     6.8172   6.8441   7.6069   8.0148   8.0948   8.4062   8.5044   8.6117
     8.8628   9.0151   9.0924   9.2879   9.5381   9.6066   9.7689   9.8548
    10.0812  10.2592  10.8432  10.8632  11.1065  11.1655  11.2565  11.3467
    11.8403  11.8892  12.5205  12.5499  12.6242  12.8433  13.4044

     the Fermi energy is     8.2690 ev

!    total energy              =   -1836.58919888 Ry
     estimated scf accuracy    <       0.00000044 Ry
     smearing contrib. (-TS)   =       0.02391028 Ry
     internal energy E=F+TS    =   -1836.61310917 Ry

     The total energy is F=E-TS. E is the sum of the following terms:
     one-electron contribution =   -8474.80825488 Ry
     hartree contribution      =    4424.58895287 Ry
     xc contribution           =    -887.75181256 Ry
     ewald contribution        =    3101.35800540 Ry

     convergence has been achieved in  19 iterations

     negative rho (up, down):  4.893E-01 0.000E+00

     Forces acting on atoms (cartesian axes, Ry/au):

     atom    1 type  1   force =     0.00000000   -0.00165997    0.02669899
     atom    2 type  1   force =     0.00000000    0.00341848   -0.01649546
     atom    3 type  1   force =     0.00000000   -0.00166799   -0.00964498
     atom    4 type  1   force =     0.00000000    0.00057247   -0.00383356
     atom    5 type  1   force =     0.00000000   -0.00054496    0.00461194
     atom    6 type  1   force =     0.00000000    0.00029604   -0.00088886
     atom    7 type  1   force =     0.00000000   -0.00044917   -0.00063917
     atom    8 type  1   force =     0.00000000   -0.00018662    0.00039380
     atom    9 type  1   force =     0.00000000    0.00019223   -0.00058727
     atom   10 type  1   force =     0.00000000    0.00018832   -0.00039694
     atom   11 type  1   force =     0.00000000   -0.00019117    0.00058388
     atom   12 type  1   force =     0.00000000    0.00045008    0.00064380
     atom   13 type  1   force =     0.00000000   -0.00029625    0.00089159
     atom   14 type  1   force =     0.00000000   -0.00057118    0.00382566
     atom   15 type  1   force =     0.00000000    0.00054599   -0.00461764
     atom   16 type  1   force =     0.00000000   -0.00341731    0.01649267
     atom   17 type  1   force =     0.00000000    0.00166696    0.00964281
     atom   18 type  1   force =     0.00000000    0.00165407   -0.02668125

     Total force =     0.047608     Total SCF correction =     0.001481

     General routines

     Parallel routines

   This run was terminated on:   2:12:57   8Sep2021

   JOB DONE.