     Program PWSCF v.6.6 starts on  8Sep2021 at  2:49:26

     R & G space division:  proc/nbgrp/npool/nimage =      48
     Fft bands division:     nmany     =       1
     Reading input from ../inputs/input_ausurf_144

     Current dimensions of program PWSCF are:
     Max number of different atomic species (ntypx) = 10
     Max number of k-points (npk) =  40000
     Max angular momentum in pseudopotentials (lmaxx) =  3

     Subspace diagonalization in iterative solution of the eigenvalue problem:
     one sub-group per band group will be used

     Found symmetry operation: I + (  0.2500  0.0000  0.0000)
     This is a supercell, fractional translations are disabled

     Title:
      Ausurf

     bravais-lattice index     =            8
     lattice parameter (alat)  =      22.2988  a.u.
     unit-cell volume          =   25777.9743 (a.u.)^3
     number of atoms/cell      =          144
     number of atomic types    =            1
     number of electrons       =      1584.00
     number of Kohn-Sham states=          950
     kinetic-energy cutoff     =      40.0000  Ry
     charge density cutoff     =     350.0000  Ry
     convergence threshold     =      1.0E-06
     mixing beta               =       0.7000
     number of iterations used =            8  TF        mixing
     Exchange-correlation=  SLA  PW   PBE  PBE
                           (   1   4   3   4   0   0   0)

     celldm(1)=  22.298768  celldm(2)=   0.866025  celldm(3)=   2.684575
     celldm(4)=   0.000000  celldm(5)=   0.000000  celldm(6)=   0.000000

     crystal axes: (cart. coord. in units of alat)
               a(1) = (   1.000000   0.000000   0.000000 )
               a(2) = (   0.000000   0.866025   0.000000 )
               a(3) = (   0.000000   0.000000   2.684575 )

     reciprocal axes: (cart. coord. in units 2 pi/alat)
               b(1) = (  1.000000  0.000000  0.000000 )
               b(2) = (  0.000000  1.154701  0.000000 )
               b(3) = (  0.000000  0.000000  0.372498 )

     PseudoPot. # 1 for Au read from file:
     /marconi/home/userexternal/czeni000/dft_src/pseudo/Au.pbe-nd-van.UPF
     MD5 check sum: deb5c07af10777505a79e28f5b4b4115
     Pseudo is Ultrasoft + core correction, Zval = 11.0
     Generated by new atomic code, or converted to UPF format
     Using radial grid of  985 points,  3 beta functions with:
                l(1) =   1
                l(2) =   2
                l(3) =   2
     Q(r) pseudized with  8 coefficients,  rinner =    1.100   1.100   1.100
                                                       1.100   1.100

     atomic species   valence    mass     pseudopotential
        Au            11.00   196.96000     Au( 1.00)

      2 Sym. Ops. (no inversion) found

   Cartesian axes

     site n.     atom                  positions (alat units)
         1           Au  tau(   1) = (   0.0000000   0.0000000   0.0000000  )
         2           Au  tau(   2) = (   0.2500000   0.0000000   0.0000000  )
         3           Au  tau(   3) = (   0.5000000   0.0000000   0.0000000  )
         4           Au  tau(   4) = (   0.0000000   0.4330127   0.0000000  )
         5           Au  tau(   5) = (   0.7500000   0.0000000   0.0000000  )
         6           Au  tau(   6) = (   0.2500000   0.4330127   0.0000000  )
         7           Au  tau(   7) = (   0.5000000   0.4330127   0.0000000  )
         8           Au  tau(   8) = (   0.7500000   0.4330127   0.0000000  )
         9           Au  tau(   9) = (   0.1250000   0.0721688   0.2041242  )
        10           Au  tau(  10) = (   0.3750000   0.0721688   0.2041242  )
        11           Au  tau(  11) = (   0.6250000   0.0721688   0.2041242  )
        12           Au  tau(  12) = (   0.1250000   0.5051815   0.2041242  )
        13           Au  tau(  13) = (   0.6250000   0.5051815   0.2041242  )
        14           Au  tau(  14) = (   0.8750000   0.0721688   0.2041242  )
        15           Au  tau(  15) = (   0.3750000   0.5051815   0.2041242  )
        16           Au  tau(  16) = (   0.8750000   0.5051815   0.2041242  )
        17           Au  tau(  17) = (   0.2500000   0.2886752   0.2041242  )
        18           Au  tau(  18) = (   0.2500000   0.7216878   0.2041242  )
        19           Au  tau(  19) = (   1.0000000   0.2886752   0.2041242  )
        20           Au  tau(  20) = (   0.5000000   0.2886752   0.2041242  )
        21           Au  tau(  21) = (   0.7500000   0.2886752   0.2041242  )
        22           Au  tau(  22) = (   0.5000000   0.7216878   0.2041242  )
        23           Au  tau(  23) = (   0.7500000   0.7216878   0.2041242  )
        24           Au  tau(  24) = (   1.0000000   0.7216878   0.2041242  )
        25           Au  tau(  25) = (   0.2500000   0.1443375   0.4082483  )
        26           Au  tau(  26) = (   0.6250000   0.3608439   0.4082483  )
        27           Au  tau(  27) = (   0.5000000   0.1443375   0.4082483  )
        28           Au  tau(  28) = (   0.7500000   0.1443375   0.4082483  )
        29           Au  tau(  29) = (   0.1250000   0.3608439   0.4082483  )
        30           Au  tau(  30) = (   0.3750000   0.3608439   0.4082483  )
        31           Au  tau(  31) = (   0.2500000   0.5773503   0.4082483  )
        32           Au  tau(  32) = (   0.5000000   0.5773503   0.4082483  )
        33           Au  tau(  33) = (   0.7500000   0.5773503   0.4082483  )
        34           Au  tau(  34) = (   1.0000000   0.1443375   0.4082483  )
        35           Au  tau(  35) = (   0.1250000   0.7938566   0.4082483  )
        36           Au  tau(  36) = (   0.3750000   0.7938566   0.4082483  )
        37           Au  tau(  37) = (   0.8750000   0.3608439   0.4082483  )
        38           Au  tau(  38) = (   0.8750000   0.7938566   0.4082483  )
        39           Au  tau(  39) = (   1.0000000   0.5773503   0.4082483  )
        40           Au  tau(  40) = (   0.6250000   0.7938566   0.4082483  )
        41           Au  tau(  41) = (   0.6250000   0.2165064   0.6123725  )
        42           Au  tau(  42) = (   0.0000000   0.0000000   0.6123725  )
        43           Au  tau(  43) = (   0.2500000   0.0000000   0.6123725  )
        44           Au  tau(  44) = (   0.5000000   0.0000000   0.6123725  )
        45           Au  tau(  45) = (   0.1250000   0.2165064   0.6123725  )
        46           Au  tau(  46) = (   0.2500000   0.4330127   0.6123725  )
        47           Au  tau(  47) = (   0.5000000   0.4330127   0.6123725  )
        48           Au  tau(  48) = (   0.7500000   0.4330127   0.6123725  )
        49           Au  tau(  49) = (   0.1250000   0.6495191   0.6123725  )
        50           Au  tau(  50) = (   0.3750000   0.2165064   0.6123725  )
        51           Au  tau(  51) = (   0.3750000   0.6495191   0.6123725  )
        52           Au  tau(  52) = (   0.6250000   0.6495191   0.6123725  )
        53           Au  tau(  53) = (   0.8750000   0.2165064   0.6123725  )
        54           Au  tau(  54) = (   0.0000000   0.4330127   0.6123725  )
        55           Au  tau(  55) = (   0.7500000   0.0000000   0.6123725  )
        56           Au  tau(  56) = (   0.8750000   0.6495191   0.6123725  )
        57           Au  tau(  57) = (   0.1250000   0.5051815   0.8164966  )
        58           Au  tau(  58) = (   0.8750000   0.0721688   0.8164966  )
        59           Au  tau(  59) = (   0.5000000   0.2886752   0.8164966  )
        60           Au  tau(  60) = (   0.1250000   0.0721688   0.8164966  )
[...]
       130           Au  tau( 130) = (   0.7500000   0.1443375   1.6329931  )
       131           Au  tau( 131) = (   1.0000000   0.1443375   1.6329931  )
       132           Au  tau( 132) = (   0.1250000   0.3608439   1.6329931  )
       133           Au  tau( 133) = (   0.1250000   0.7938566   1.6329931  )
       134           Au  tau( 134) = (   0.3750000   0.3608439   1.6329931  )
       135           Au  tau( 135) = (   0.6250000   0.3608439   1.6329931  )
       136           Au  tau( 136) = (   0.8750000   0.3608439   1.6329931  )
       137           Au  tau( 137) = (   0.6250000   0.6495191   1.8371173  )
       138           Au  tau( 138) = (   0.8750000   0.6495191   1.8371173  )
       139           Au  tau( 139) = (   0.1250000   0.2165064   1.8371173  )
       140           Au  tau( 140) = (   0.1250000   0.6495191   1.8371173  )
       141           Au  tau( 141) = (   0.3750000   0.2165064   1.8371173  )
       142           Au  tau( 142) = (   0.3750000   0.6495191   1.8371173  )
       143           Au  tau( 143) = (   0.6250000   0.2165064   1.8371173  )
       144           Au  tau( 144) = (   0.8750000   0.2165064   1.8371173  )

     number of k points=     9  Marzari-Vanderbilt smearing, width (Ry)=  0.0500
                       cart. coord. in units 2pi/alat
        k(    1) = (   0.0833333   0.0962250   0.0000000), wk =   0.2222222
        k(    2) = (   0.0833333   0.2886751   0.0000000), wk =   0.2222222
        k(    3) = (   0.0833333   0.4811252   0.0000000), wk =   0.2222222
        k(    4) = (   0.2500000   0.0962250   0.0000000), wk =   0.2222222
        k(    5) = (   0.2500000   0.2886751   0.0000000), wk =   0.2222222
        k(    6) = (   0.2500000   0.4811252   0.0000000), wk =   0.2222222
        k(    7) = (   0.4166667   0.0962250   0.0000000), wk =   0.2222222
        k(    8) = (   0.4166667   0.2886751   0.0000000), wk =   0.2222222
        k(    9) = (   0.4166667   0.4811252   0.0000000), wk =   0.2222222

     Initial potential from superposition of free atoms

     starting charge 1582.32788, renormalised to 1584.00000

     negative rho (up, down):  3.841E+00 0.000E+00
     Starting wfcs are 1296 randomized atomic wfcs

     Self-consistent Calculation

     iteration #  1     ecut=    40.00 Ry     beta= 0.70
     Davidson diagonalization with overlap
     ethr =  1.00E-02,  avg # of iterations =  2.9

     Threshold (ethr) on eigenvalues was too large:
     Diagonalizing with lowered threshold

     Davidson diagonalization with overlap
     ethr =  3.34E-04,  avg # of iterations =  3.4

     negative rho (up, down):  3.652E+00 0.000E+00

     total energy              =  -14692.54240586 Ry
     estimated scf accuracy    <       6.30352433 Ry

[...]

     iteration #  5     ecut=    40.00 Ry     beta= 0.70
     Davidson diagonalization with overlap
     c_bands:  2 eigenvalues not converged
     ethr =  5.11E-05,  avg # of iterations = 12.1

[...]

     iteration # 17     ecut=    40.00 Ry     beta= 0.70
     Davidson diagonalization with overlap
     c_bands:  1 eigenvalues not converged
     ethr =  6.16E-08,  avg # of iterations = 12.0

[...]

     total energy              =  -14692.71339571 Ry
     estimated scf accuracy    <       0.00000421 Ry

     iteration # 22     ecut=    40.00 Ry     beta= 0.70
     Davidson diagonalization with overlap
     ethr =  2.66E-10,  avg # of iterations =  2.1

[...]

     End of self-consistent calculation

          k = 0.0833 0.0962 0.0000 (110166 PWs)   bands (ev):

    -0.8130  -0.4713   0.0254   0.2537   0.5491   0.5640   0.6015   0.6350
     0.8362   0.9223   0.9650   1.0167   1.1251   1.2159   1.2463   1.3387
[...]
     2.7689   2.7781   2.7906   2.7938   2.8071   2.8124   2.8125   2.8193
     2.8247   2.8508   2.8554   2.8573   2.8600   2.8986   2.9208   2.9294
     2.9326   2.9403   2.9479   2.9503   2.9612   2.9794   2.9841   2.9975
     3.0086   3.0237   3.0439   3.0562   3.0593   3.0691   3.0695   3.0726
     3.0814   3.0834   3.0933   3.1160   3.1171   3.1200   3.1379   3.1428
     3.1479   3.1674   3.1695   3.1761   3.1909   3.1946   3.2021   3.2088
     3.2139   3.2319   3.2336   3.2372   3.2453   3.2615   3.2817   3.2842
     3.2911   3.2926   3.2934   3.3002   3.3218   3.3246   3.3252   3.3263
     3.3319   3.3334   3.3366   3.3441   3.3506   3.3552   3.3607   3.3695
     3.3758   3.3817   3.4061   3.4067   3.4166   3.4219   3.4277   3.4423
     3.4478   3.4484   3.4495   3.4593   3.4631   3.4634   3.4757   3.4759
     3.4789   3.4824   3.4871   3.4974   3.5022   3.5090   3.5120   3.5267
     3.5334   3.5360   3.5480   3.5629   3.5670   3.5689   3.5801   3.5868
     3.5972   3.6018   3.6019   3.6076   3.6089   3.6211   3.6326   3.6469
     3.6480   3.6482   3.6595   3.6791   3.6847   3.6907   3.7092   3.7116
     3.7320   3.7326   3.7494   3.7504   3.7620   3.7656   3.7732   3.7743
     3.7760   3.7789   3.7863   3.7920   3.7941   3.8014   3.8050   3.8139
     3.8189   3.8281   3.8358   3.8434   3.8525   3.8649   3.8697   3.8698
     3.8735   3.8738   3.8766   3.8935   3.8952   3.9003   3.9021   3.9073
     3.9193   3.9206   3.9261   3.9327   3.9342   3.9346   3.9388   3.9495
     3.9550   3.9552   3.9610   3.9635   3.9647   3.9677   3.9802   3.9835
     3.9865   3.9877   3.9917   3.9941   4.0057   4.0118   4.0217   4.0262
     4.0266   4.0425   4.0521   4.0645   4.0682   4.0731   4.0733   4.0801
     4.0868   4.0954   4.0986   4.0992   4.1049   4.1080   4.1102   4.1141
     4.1177   4.1298   4.1337   4.1399   4.1422   4.1570   4.1587   4.1645
     4.1654   4.1657   4.1664   4.1674   4.1744   4.1754   4.1755   4.1786
     4.1831   4.1889   4.1906   4.1906   4.1941   4.2008   4.2039   4.2058
     4.2067   4.2152   4.2185   4.2272   4.2357   4.2377   4.2442   4.2549
     4.2566   4.2612   4.2654   4.2700   4.2779   4.2941   4.2961   4.3003
     4.3058   4.3146   4.3185   4.3219   4.3224   4.3330   4.3384   4.3481
     4.3567   4.3579   4.3594   4.3673   4.3696   4.3704   4.3790   4.3807
     4.3828   4.3838   4.3928   4.3944   4.3996   4.4014   4.4266   4.4297
     4.4314   4.4334   4.4421   4.4513   4.4514   4.4526   4.4661   4.4687
     4.4917   4.4934   4.5084   4.5098   4.5128   4.5188   4.5197   4.5250
     4.5282   4.5336   4.5363   4.5382   4.5484   4.5688   4.5790   4.5973
     4.6061   4.6219   4.6326   4.6326   4.6362   4.6449   4.6592   4.6632
     4.6874   4.6917   4.6927   4.6975   4.6991   4.7086   4.7183   4.7212
     4.7253   4.7374   4.7467   4.7490   4.7515   4.7607   4.7646   4.7728
     4.8137   4.8255   4.8275   4.8288   4.8404   4.8422   4.8508   4.8720
     4.8787   4.8810   4.8821   4.8919   4.8962   4.8991   4.9029   4.9094
     4.9100   4.9107   4.9275   4.9299   4.9353   4.9413   4.9564   4.9597
     4.9620   4.9724   4.9731   4.9752   4.9810   4.9836   4.9914   4.9989
     4.9991   5.0118   5.0192   5.0294   5.0300   5.0307   5.0353   5.0376
     5.0465   5.0565   5.0606   5.0632   5.0697   5.0822   5.0882   5.1087
     5.1115   5.1243   5.1281   5.1353   5.1384   5.1419   5.1515   5.1519
[...]
     9.9776   9.9943   9.9979  10.0743  10.0902  10.2000  10.2070  10.3143
    10.3642  10.4598  10.5294  10.6511  10.6742  10.7058  10.7284  10.7896
    10.8570  10.8657  10.8917  10.9389  10.9821  10.9854  11.0332  11.0638
    11.0767  11.1309  11.1449  11.2293  11.2359  11.2425  11.2591  11.2645
    11.2823  11.3281  11.3377  11.3825  11.4669  11.5722  11.6063  11.7218
    11.7283  11.7565  11.8213  11.8826  11.8985  11.9043  11.9531  12.0480
    12.0590  12.0968  12.2162  12.2255  12.3381  12.3722  12.3802  12.4490
    12.4558  12.5407  12.5512  12.6019  12.6092  12.6161  12.6199  12.6451
    12.7299  12.7436  12.7911  12.8467  12.8749  12.8884  13.0227  13.0523
    13.0812  13.1580  13.2153  13.2447  13.2843  13.3197  13.3234  13.3388
    13.3836  13.4640  13.4685  13.4686  13.4916  13.5779  13.6762  13.6824
    13.7254  13.8101  13.8226  13.8359  13.8434  13.8831  13.8858  13.8901
    13.9144  13.9526  13.9608  13.9952  13.9973  14.0027  14.0079  14.0905
    14.1449  14.1707  14.1717  14.2789  14.2824  14.3394  14.3722  14.4037
    14.4104  14.4232  14.5058  14.5482  14.5571  14.7404

[...]

          k = 0.4167 0.4811 0.0000 (110049 PWs)   bands (ev):

    -0.2964  -0.0867  -0.0153   0.0345   0.1857   0.2373   0.3063   0.4984
     0.5170   0.7098   0.7752   0.9539   1.0820   1.2644   1.3264   1.4408
     1.4599   1.4902   1.5899   1.5992   1.6532   1.6633   1.6923   1.7080
     1.7736   1.7752   1.8301   1.8309   1.8821   1.8925   1.8936   1.9117
     1.9301   1.9455   1.9508   1.9844   1.9847   1.9972   2.0088   2.0218
     2.0382   2.0383   2.0466   2.0862   2.0945   2.0983   2.1077   2.1106
     2.1114   2.1129   2.1326   2.1387   2.1413   2.1596   2.1656   2.1782
     2.1824   2.1857   2.1976   2.2006   2.2150   2.2187   2.2190   2.2313
     2.2356   2.2429   2.2449   2.2486   2.2591   2.2930   2.3037   2.3160
     2.3180   2.3194   2.3262   2.3318   2.3327   2.3375   2.3559   2.3628
     2.3653   2.3699   2.3709   2.3756   2.3855   2.4263   2.4306   2.4337
     2.4393   2.4483   2.4619   2.4670   2.4677   2.4700   2.4758   2.4851
     2.5038   2.5088   2.5096   2.5196   2.5290   2.5370   2.5474   2.5512
     2.5602   2.5627   2.5778   2.5867   2.5915   2.5927   2.5991   2.6207
     2.6339   2.6433   2.6453   2.6453   2.6574   2.6636   2.6783   2.6824
     2.6895   2.6915   2.7050   2.7104   2.7283   2.7308   2.7328   2.7542
     2.7643   2.7658   2.7659   2.7748   2.7811   2.7849   2.7927   2.8136
     2.8174   2.8202   2.8366   2.8492   2.8588   2.8679   2.8720   2.8851
     2.8934   2.8938   2.8949   2.9119   2.9181   2.9232   2.9371   2.9537
     2.9591   2.9794   2.9841   2.9892   2.9984   3.0497   3.0680   3.0777
     3.0835   3.1049   3.1142   3.1393   3.1620   3.1695   3.1772   3.1923
     3.1929   3.1967   3.2153   3.2254   3.2460   3.2507   3.2640   3.2820
     3.2885   3.2907   3.2914   3.3062   3.3107   3.3116   3.3179   3.3228
     3.3321   3.3420   3.3498   3.3550   3.3686   3.3841   3.4055   3.4118
     3.4263   3.4329   3.4412   3.4540   3.4594   3.4638   3.4750   3.4826
     3.4861   3.4862   3.4879   3.5067   3.5071   3.5106   3.5135   3.5185
     3.5224   3.5365   3.5507   3.5512   3.5660   3.5736   3.5747   3.5822
     3.5851   3.5852   3.5859   3.5921   3.5952   3.6084   3.6106   3.6239
     3.6440   3.6518   3.6612   3.6646   3.6649   3.6706   3.6743   3.6857
     3.6951   3.6990   3.7031   3.7272   3.7444   3.7467   3.7540   3.7573
     3.7579   3.7601   3.7726   3.7960   3.8100   3.8140   3.8140   3.8195
     3.8360   3.8366   3.8493   3.8529   3.8575   3.8613   3.8868   3.8903
     3.8915   3.8922   3.8975   3.9018   3.9079   3.9102   3.9156   3.9201
     3.9215   3.9261   3.9369   3.9376   3.9387   3.9548   3.9648   3.9709
     3.9723   3.9943   3.9944   4.0156   4.0159   4.0213   4.0235   4.0255
     4.0270   4.0351   4.0368   4.0444   4.0464   4.0530   4.0547   4.0552
     4.0639   4.0663   4.0703   4.0787   4.0829   4.0853   4.0916   4.0922
     4.1066   4.1072   4.1083   4.1175   4.1252   4.1354   4.1357   4.1384
     4.1386   4.1446   4.1556   4.1595   4.1723   4.1752   4.1816   4.1854
     4.1874   4.1951   4.1999   4.2014   4.2118   4.2161   4.2208   4.2248
     4.2249   4.2319   4.2337   4.2362   4.2405   4.2452   4.2466   4.2529
     4.2576   4.2619   4.2644   4.2646   4.2647   4.2692   4.2794   4.2795
     4.2896   4.2896   4.2896   4.2940   4.3101   4.3113   4.3136   4.3137
     4.3176   4.3242   4.3320   4.3352   4.3391   4.3408   4.3438   4.3498
     4.3581   4.3693   4.3779   4.3811   4.3812   4.3900   4.3908   4.3985
     4.4064   4.4094   4.4116   4.4131   4.4228   4.4285   4.4363   4.4387
     4.4400   4.4442   4.4468   4.4492   4.4591   4.4654   4.4716   4.4751
     4.4814   4.4815   4.5034   4.5153   4.5197   4.5280   4.5361   4.5483
     4.5542   4.5637   4.5768   4.5778   4.5789   4.5805   4.5828   4.5844
     4.5867   4.5903   4.5915   4.5951   4.6013   4.6078   4.6095   4.6122
     4.6278   4.6308   4.6327   4.6435   4.6457   4.6542   4.6545   4.6567
     4.6645   4.6663   4.6740   4.6745   4.6793   4.6841   4.6880   4.6991
     4.7019   4.7020   4.7092   4.7121   4.7154   4.7211   4.7319   4.7319
     4.7354   4.7528   4.7556   4.7613   4.7758   4.7842   4.7950   4.8105
     4.8106   4.8115   4.8123   4.8158   4.8239   4.8460   4.8572   4.8615
     4.8659   4.8702   4.8792   4.8813   4.8835   4.8952   4.9028   4.9057
     4.9127   4.9264   4.9424   4.9488   4.9505   4.9542   4.9568   4.9599
     4.9688   4.9778   4.9813   4.9824   4.9957   5.0013   5.0015   5.0041
     5.0078   5.0112   5.0128   5.0270   5.0296   5.0313   5.0385   5.0472
     5.0558   5.0689   5.0744   5.0798   5.0993   5.0995   5.1038   5.1108
[...]
    10.1185  10.1417  10.2202  10.2489  10.2961  10.4139  10.4217  10.4617
    10.4933  10.5331  10.5512  10.5535  10.5841  10.6277  10.7317  10.7646
    10.8098  10.8576  10.8739  11.0009  11.0368  11.0519  11.0607  11.0827
    11.1012  11.1538  11.2436  11.2808  11.2940  11.2965  11.3894  11.4190
    11.4985  11.5453  11.5492  11.5827  11.6985  11.7827  11.8596  11.8925
    11.9460  12.0280  12.0836  12.0926  12.1211  12.1903  12.1921  12.2857
    12.3050  12.3446  12.3496  12.3900  12.3904  12.4533  12.4784  12.4984
    12.5622  12.5983  12.6506  12.6596  12.6903  12.7778  12.8317  12.8747
    12.9365  12.9772  12.9826  13.0402  13.0763  13.1129  13.1501  13.1663
    13.1688  13.2451  13.2626  13.2769  13.2790  13.3241  13.3736  13.3752
    13.4158  13.4832  13.5247  13.5416  13.5421  13.6271  13.6399  13.6619
    13.7079  13.7485  13.7665  13.7676  13.8268  13.8337  13.9447  13.9555
    13.9646  14.0389  14.0431  14.0746  14.0913  14.1427  14.1921  14.2056
    14.2443  14.2494  14.3200  14.3758  14.3762  14.3764  14.3829  14.4089
    14.4872  14.4987  14.5307  14.5315  14.5552  14.5979

     the Fermi energy is     8.2691 ev

!    total energy              =  -14692.71339624 Ry
     estimated scf accuracy    <       0.00000016 Ry
     smearing contrib. (-TS)   =       0.18974568 Ry
     internal energy E=F+TS    =  -14692.90314191 Ry

     The total energy is F=E-TS. E is the sum of the following terms:
     one-electron contribution =  -67798.62267755 Ry
     hartree contribution      =   35396.87144225 Ry
     xc contribution           =   -7102.01593193 Ry
     ewald contribution        =   24810.86402531 Ry

     convergence has been achieved in  22 iterations

     negative rho (up, down):  3.918E+00 0.000E+00

     Forces acting on atoms (cartesian axes, Ry/au):

     atom    1 type  1   force =     0.00000000   -0.00165275    0.02671585
     atom    2 type  1   force =    -0.00000211   -0.00165303    0.02671366
     atom    3 type  1   force =     0.00000000   -0.00165460    0.02671331
     atom    4 type  1   force =     0.00000000   -0.00165284    0.02671594
     atom    5 type  1   force =     0.00000211   -0.00165303    0.02671366
     atom    6 type  1   force =    -0.00000233   -0.00165293    0.02671347
     atom    7 type  1   force =     0.00000000   -0.00165432    0.02671324
     atom    8 type  1   force =     0.00000233   -0.00165293    0.02671347
     atom    9 type  1   force =    -0.00000243    0.00336167   -0.01661648
     atom   10 type  1   force =    -0.00000245    0.00336079   -0.01661612
     atom   11 type  1   force =     0.00000245    0.00336079   -0.01661612
     atom   12 type  1   force =    -0.00000249    0.00336164   -0.01661651
     atom   13 type  1   force =     0.00000252    0.00336079   -0.01661631
     atom   14 type  1   force =     0.00000243    0.00336167   -0.01661648
     atom   15 type  1   force =    -0.00000252    0.00336079   -0.01661631
     atom   16 type  1   force =     0.00000249    0.00336164   -0.01661651
     atom   17 type  1   force =    -0.00000220   -0.00160372   -0.00971181
     atom   18 type  1   force =    -0.00000222   -0.00160351   -0.00971196
     atom   19 type  1   force =     0.00000000   -0.00160382   -0.00971030
     atom   20 type  1   force =     0.00000000   -0.00160376   -0.00971363
     atom   21 type  1   force =     0.00000220   -0.00160372   -0.00971181
     atom   22 type  1   force =     0.00000000   -0.00160368   -0.00971366
     atom   23 type  1   force =     0.00000222   -0.00160351   -0.00971196
     atom   24 type  1   force =     0.00000000   -0.00160365   -0.00971039
     atom   25 type  1   force =    -0.00000220    0.00056196   -0.00392627
     atom   26 type  1   force =     0.00000174   -0.00053399    0.00449365
     atom   27 type  1   force =     0.00000000    0.00056162   -0.00392654
     atom   28 type  1   force =     0.00000220    0.00056196   -0.00392627
     atom   29 type  1   force =    -0.00000189   -0.00053412    0.00449476
     atom   30 type  1   force =    -0.00000174   -0.00053399    0.00449365
     atom   31 type  1   force =    -0.00000221    0.00056195   -0.00392623
     atom   32 type  1   force =     0.00000000    0.00056155   -0.00392645
     atom   33 type  1   force =     0.00000221    0.00056195   -0.00392623
     atom   34 type  1   force =     0.00000000    0.00056218   -0.00392475
     atom   35 type  1   force =    -0.00000186   -0.00053411    0.00449474
     atom   36 type  1   force =    -0.00000175   -0.00053407    0.00449362
     atom   37 type  1   force =     0.00000189   -0.00053412    0.00449476
     atom   38 type  1   force =     0.00000186   -0.00053411    0.00449474
     atom   39 type  1   force =     0.00000000    0.00056216   -0.00392475
     atom   40 type  1   force =     0.00000175   -0.00053407    0.00449362
     atom   41 type  1   force =     0.00000191   -0.00045270   -0.00054754
     atom   42 type  1   force =     0.00000000    0.00028711   -0.00077832
     atom   43 type  1   force =    -0.00000228    0.00028808   -0.00077901
     atom   44 type  1   force =     0.00000000    0.00028848   -0.00078036
     atom   45 type  1   force =    -0.00000238   -0.00045310   -0.00054817
     atom   46 type  1   force =    -0.00000228    0.00028809   -0.00077910
     atom   47 type  1   force =     0.00000000    0.00028847   -0.00078039
     atom   48 type  1   force =     0.00000228    0.00028809   -0.00077910
     atom   49 type  1   force =    -0.00000235   -0.00045311   -0.00054825
     atom   50 type  1   force =    -0.00000191   -0.00045270   -0.00054754
     atom   51 type  1   force =    -0.00000194   -0.00045270   -0.00054759
     atom   52 type  1   force =     0.00000194   -0.00045270   -0.00054759
     atom   53 type  1   force =     0.00000238   -0.00045310   -0.00054817
     atom   54 type  1   force =     0.00000000    0.00028710   -0.00077838
     atom   55 type  1   force =     0.00000228    0.00028808   -0.00077901
     atom   56 type  1   force =     0.00000235   -0.00045311   -0.00054825
     atom   57 type  1   force =    -0.00000127   -0.00018597    0.00040369
     atom   58 type  1   force =     0.00000130   -0.00018599    0.00040373
     atom   59 type  1   force =     0.00000000    0.00019607   -0.00056864
     atom   60 type  1   force =    -0.00000130   -0.00018599    0.00040373
[...]
     atom  130 type  1   force =     0.00000259   -0.00336079    0.01661226
     atom  131 type  1   force =     0.00000000   -0.00336049    0.01661411
     atom  132 type  1   force =    -0.00000128    0.00160051    0.00970932
     atom  133 type  1   force =    -0.00000119    0.00160061    0.00970929
     atom  134 type  1   force =    -0.00000128    0.00160181    0.00970629
     atom  135 type  1   force =     0.00000128    0.00160181    0.00970629
     atom  136 type  1   force =     0.00000128    0.00160051    0.00970932
     atom  137 type  1   force =    -0.00000104    0.00164893   -0.02670267
     atom  138 type  1   force =     0.00000031    0.00165111   -0.02669912
     atom  139 type  1   force =    -0.00000004    0.00165128   -0.02669950
     atom  140 type  1   force =    -0.00000031    0.00165111   -0.02669912
     atom  141 type  1   force =     0.00000106    0.00164896   -0.02670268
     atom  142 type  1   force =     0.00000104    0.00164893   -0.02670267
     atom  143 type  1   force =    -0.00000106    0.00164896   -0.02670268
     atom  144 type  1   force =     0.00000004    0.00165128   -0.02669950

     Total force =     0.134948     Total SCF correction =     0.002311

     General routines

     Parallel routines

   This run was terminated on:   3:17:13   8Sep2021

   JOB DONE.