     Program PWSCF v.6.6 starts on  8Sep2021 at  5:26:17

     R & G space division:  proc/nbgrp/npool/nimage =      48
     Fft bands division:     nmany     =       1
     Reading input from ../inputs/input_ausurf_72

     Current dimensions of program PWSCF are:
     Max number of different atomic species (ntypx) = 10
     Max number of k-points (npk) =  40000
     Max angular momentum in pseudopotentials (lmaxx) =  3

     Subspace diagonalization in iterative solution of the eigenvalue problem:
     one sub-group per band group will be used

     Found symmetry operation: I + ( -0.5000  0.0000  0.0000)
     This is a supercell, fractional translations are disabled

     Title:
      Ausurf

     bravais-lattice index     =            8
     lattice parameter (alat)  =      11.1494  a.u.
     unit-cell volume          =   12888.9871 (a.u.)^3
     number of atoms/cell      =           72
     number of atomic types    =            1
     number of electrons       =       792.00
     number of Kohn-Sham states=          475
     kinetic-energy cutoff     =      40.0000  Ry
     charge density cutoff     =     350.0000  Ry
     convergence threshold     =      1.0E-06
     mixing beta               =       0.7000
     number of iterations used =            8  TF        mixing
     Exchange-correlation=  SLA  PW   PBE  PBE
                           (   1   4   3   4   0   0   0)

     celldm(1)=  11.149384  celldm(2)=   1.732051  celldm(3)=   5.369150
     celldm(4)=   0.000000  celldm(5)=   0.000000  celldm(6)=   0.000000

     crystal axes: (cart. coord. in units of alat)
               a(1) = (   1.000000   0.000000   0.000000 )
               a(2) = (   0.000000   1.732051   0.000000 )
               a(3) = (   0.000000   0.000000   5.369150 )

     reciprocal axes: (cart. coord. in units 2 pi/alat)
               b(1) = (  1.000000  0.000000  0.000000 )
               b(2) = (  0.000000  0.577350  0.000000 )
               b(3) = (  0.000000  0.000000  0.186249 )

     PseudoPot. # 1 for Au read from file:
     /marconi/home/userexternal/czeni000/dft_src/pseudo/Au.pbe-nd-van.UPF
     MD5 check sum: deb5c07af10777505a79e28f5b4b4115
     Pseudo is Ultrasoft + core correction, Zval = 11.0
     Generated by new atomic code, or converted to UPF format
     Using radial grid of  985 points,  3 beta functions with:
                l(1) =   1
                l(2) =   2
                l(3) =   2
     Q(r) pseudized with  8 coefficients,  rinner =    1.100   1.100   1.100
                                                       1.100   1.100

     atomic species   valence    mass     pseudopotential
        Au            11.00   196.96000     Au( 1.00)

      2 Sym. Ops. (no inversion) found

   Cartesian axes

     site n.     atom                  positions (alat units)
         1           Au  tau(   1) = (   0.0000000   0.0000000   0.0000000  )
         2           Au  tau(   2) = (   0.5000000   0.0000000   0.0000000  )
         3           Au  tau(   3) = (   0.0000000   0.8660254   0.0000000  )
         4           Au  tau(   4) = (   0.5000000   0.8660254   0.0000000  )
         5           Au  tau(   5) = (   0.2500000   0.1443376   0.4082483  )
         6           Au  tau(   6) = (   0.7500000   0.1443376   0.4082483  )
         7           Au  tau(   7) = (   0.2500000   1.0103631   0.4082483  )
         8           Au  tau(   8) = (   0.7500000   1.0103631   0.4082483  )
         9           Au  tau(   9) = (   0.5000000   0.5773503   0.4082483  )
        10           Au  tau(  10) = (   0.5000000   1.4433756   0.4082483  )
        11           Au  tau(  11) = (   1.0000000   0.5773503   0.4082483  )
        12           Au  tau(  12) = (   1.0000000   1.4433756   0.4082483  )
        13           Au  tau(  13) = (   0.5000000   0.2886751   0.8164966  )
        14           Au  tau(  14) = (   1.0000000   0.2886751   0.8164966  )
        15           Au  tau(  15) = (   0.2500000   0.7216878   0.8164966  )
        16           Au  tau(  16) = (   0.7500000   0.7216878   0.8164966  )
        17           Au  tau(  17) = (   0.5000000   1.1547005   0.8164966  )
        18           Au  tau(  18) = (   1.0000000   1.1547005   0.8164966  )
        19           Au  tau(  19) = (   0.2500000   1.5877132   0.8164966  )
        20           Au  tau(  20) = (   0.7500000   1.5877132   0.8164966  )
        21           Au  tau(  21) = (   0.0000000   0.0000000   1.2247449  )
        22           Au  tau(  22) = (   0.5000000   0.0000000   1.2247449  )
        23           Au  tau(  23) = (   0.2500000   0.4330127   1.2247449  )
        24           Au  tau(  24) = (   0.5000000   0.8660254   1.2247449  )
        25           Au  tau(  25) = (   0.2500000   1.2990381   1.2247449  )
        26           Au  tau(  26) = (   0.7500000   0.4330127   1.2247449  )
        27           Au  tau(  27) = (   0.7500000   1.2990381   1.2247449  )
        28           Au  tau(  28) = (   0.0000000   0.8660254   1.2247449  )
        29           Au  tau(  29) = (   0.2500000   1.0103631   1.6329932  )
        30           Au  tau(  30) = (   1.0000000   0.5773503   1.6329932  )
        31           Au  tau(  31) = (   0.2500000   0.1443376   1.6329932  )
        32           Au  tau(  32) = (   0.7500000   0.1443376   1.6329932  )
        33           Au  tau(  33) = (   0.7500000   1.0103631   1.6329932  )
        34           Au  tau(  34) = (   0.5000000   0.5773503   1.6329932  )
        35           Au  tau(  35) = (   0.5000000   1.4433756   1.6329932  )
        36           Au  tau(  36) = (   1.0000000   1.4433756   1.6329932  )
        37           Au  tau(  37) = (   0.5000000   0.2886751   2.0412415  )
        38           Au  tau(  38) = (   1.0000000   0.2886751   2.0412415  )
        39           Au  tau(  39) = (   0.2500000   0.7216878   2.0412415  )
        40           Au  tau(  40) = (   0.7500000   0.7216878   2.0412415  )
        41           Au  tau(  41) = (   0.7500000   1.5877132   2.0412415  )
        42           Au  tau(  42) = (   0.5000000   1.1547005   2.0412415  )
        43           Au  tau(  43) = (   1.0000000   1.1547005   2.0412415  )
        44           Au  tau(  44) = (   0.2500000   1.5877132   2.0412415  )
        45           Au  tau(  45) = (   0.0000000   0.0000000   2.4494897  )
        46           Au  tau(  46) = (   0.0000000   0.8660254   2.4494897  )
        47           Au  tau(  47) = (   0.5000000   0.0000000   2.4494897  )
        48           Au  tau(  48) = (   0.5000000   0.8660254   2.4494897  )
        49           Au  tau(  49) = (   0.2500000   0.4330127   2.4494897  )
        50           Au  tau(  50) = (   0.7500000   0.4330127   2.4494897  )
        51           Au  tau(  51) = (   0.2500000   1.2990381   2.4494897  )
        52           Au  tau(  52) = (   0.7500000   1.2990381   2.4494897  )
        53           Au  tau(  53) = (   1.0000000   1.4433756   2.8577380  )
        54           Au  tau(  54) = (   0.2500000   0.1443376   2.8577380  )
        55           Au  tau(  55) = (   0.2500000   1.0103631   2.8577380  )
        56           Au  tau(  56) = (   0.7500000   0.1443376   2.8577380  )
        57           Au  tau(  57) = (   0.7500000   1.0103631   2.8577380  )
        58           Au  tau(  58) = (   0.5000000   0.5773503   2.8577380  )
        59           Au  tau(  59) = (   0.5000000   1.4433756   2.8577380  )
        60           Au  tau(  60) = (   1.0000000   0.5773503   2.8577380  )
        61           Au  tau(  61) = (   0.7500000   1.5877132   3.2659863  )
        62           Au  tau(  62) = (   0.5000000   0.2886751   3.2659863  )
        63           Au  tau(  63) = (   0.5000000   1.1547005   3.2659863  )
        64           Au  tau(  64) = (   1.0000000   0.2886751   3.2659863  )
        65           Au  tau(  65) = (   1.0000000   1.1547005   3.2659863  )
        66           Au  tau(  66) = (   0.2500000   0.7216878   3.2659863  )
        67           Au  tau(  67) = (   0.2500000   1.5877132   3.2659863  )
        68           Au  tau(  68) = (   0.7500000   0.7216878   3.2659863  )
        69           Au  tau(  69) = (   0.2500000   0.4330127   3.6742346  )
        70           Au  tau(  70) = (   0.2500000   1.2990381   3.6742346  )
        71           Au  tau(  71) = (   0.7500000   0.4330127   3.6742346  )
        72           Au  tau(  72) = (   0.7500000   1.2990381   3.6742346  )

     number of k points=    18  Marzari-Vanderbilt smearing, width (Ry)=  0.0500
                       cart. coord. in units 2pi/alat
        k(    1) = (   0.0416667   0.0481125   0.0000000), wk =   0.1111111
        k(    2) = (   0.0416667   0.1443376   0.0000000), wk =   0.1111111
        k(    3) = (   0.0416667   0.2405626   0.0000000), wk =   0.1111111
        k(    4) = (   0.1250000   0.0481125   0.0000000), wk =   0.1111111
        k(    5) = (   0.1250000   0.1443376   0.0000000), wk =   0.1111111
        k(    6) = (   0.1250000   0.2405626   0.0000000), wk =   0.1111111
        k(    7) = (   0.2083333   0.0481125   0.0000000), wk =   0.1111111
        k(    8) = (   0.2083333   0.1443376   0.0000000), wk =   0.1111111
        k(    9) = (   0.2083333   0.2405626   0.0000000), wk =   0.1111111
        k(   10) = (   0.2916667   0.0481125   0.0000000), wk =   0.1111111
        k(   11) = (   0.2916667   0.1443376   0.0000000), wk =   0.1111111
        k(   12) = (   0.2916667   0.2405626   0.0000000), wk =   0.1111111
        k(   13) = (   0.3750000   0.0481125   0.0000000), wk =   0.1111111
        k(   14) = (   0.3750000   0.1443376   0.0000000), wk =   0.1111111
        k(   15) = (   0.3750000   0.2405626   0.0000000), wk =   0.1111111
        k(   16) = (   0.4583333   0.0481125   0.0000000), wk =   0.1111111
        k(   17) = (   0.4583333   0.1443376   0.0000000), wk =   0.1111111
        k(   18) = (   0.4583333   0.2405626   0.0000000), wk =   0.1111111

     Initial potential from superposition of free atoms

     starting charge  791.16394, renormalised to  792.00000

     negative rho (up, down):  1.916E+00 0.000E+00
     Starting wfcs are  648 randomized atomic wfcs

     Self-consistent Calculation

     iteration #  1     ecut=    40.00 Ry     beta= 0.70
     Davidson diagonalization with overlap
     ethr =  1.00E-02,  avg # of iterations =  2.5

     Threshold (ethr) on eigenvalues was too large:
     Diagonalizing with lowered threshold

     Davidson diagonalization with overlap
     ethr =  3.34E-04,  avg # of iterations =  2.8

     negative rho (up, down):  1.820E+00 0.000E+00

     total energy              =   -7346.27246755 Ry
     estimated scf accuracy    <       3.14782683 Ry

[...]

     iteration #  5     ecut=    40.00 Ry     beta= 0.70
     Davidson diagonalization with overlap
     c_bands:  1 eigenvalues not converged
     ethr =  5.11E-05,  avg # of iterations = 11.4

[...]

     iteration # 19     ecut=    40.00 Ry     beta= 0.70
     Davidson diagonalization with overlap
     c_bands:  1 eigenvalues not converged
     ethr =  8.69E-09,  avg # of iterations =  7.7

[...]

     total energy              =   -7346.35669449 Ry
     estimated scf accuracy    <       0.00003063 Ry

     iteration # 21     ecut=    40.00 Ry     beta= 0.70
     Davidson diagonalization with overlap
     ethr =  3.87E-09,  avg # of iterations =  2.4

[...]

     End of self-consistent calculation

          k = 0.0417 0.0481 0.0000 ( 55126 PWs)   bands (ev):

    -0.8129  -0.4712   0.0255   0.5492   0.6015   0.8363   0.9651   1.1251
     1.2160   1.2464   1.4435   1.5574   1.5650   1.5684   1.6036   1.6144
     1.6195   1.7229   1.8477   1.8507   1.8522   1.8547   1.8642   1.8683
     1.9218   2.0303   2.0337   2.0407   2.1221   2.1228   2.1255   2.1516
     2.1521   2.1636   2.1715   2.2258   2.2293   2.2383   2.2442   2.2807
     2.3148   2.3181   2.3230   2.3338   2.3503   2.3812   2.3917   2.4116
     2.4166   2.4302   2.4408   2.4759   2.4837   2.4887   2.4953   2.5152
     2.5246   2.5464   2.5802   2.6022   2.6234   2.6416   2.6673   2.6688
     2.6847   2.7238   2.7341   2.7591   2.7690   2.7907   2.8248   2.8574
     2.9327   2.9404   2.9613   2.9795   3.0562   3.0695   3.0815   3.0835
     3.1172   3.1480   3.1696   3.1761   3.1947   3.2140   3.2337   3.2612
     3.2909   3.3218   3.3244   3.3319   3.3437   3.3608   3.3695   3.3758
     3.4219   3.4496   3.4594   3.4758   3.4825   3.5091   3.5120   3.5481
     3.5628   3.5670   3.5869   3.6019   3.6076   3.6212   3.6469   3.6482
     3.6595   3.6847   3.6908   3.7320   3.7327   3.7657   3.7744   3.7789
     3.7921   3.7940   3.8015   3.8282   3.8525   3.8650   3.8698   3.8698
     3.8936   3.8953   3.9021   3.9073   3.9194   3.9261   3.9345   3.9389
     3.9496   3.9551   3.9553   3.9610   3.9636   3.9801   3.9878   3.9940
     4.0119   4.0262   4.0425   4.0732   4.0802   4.0868   4.0953   4.0993
     4.1078   4.1099   4.1178   4.1338   4.1399   4.1646   4.1655   4.1657
     4.1744   4.1755   4.1832   4.1890   4.1906   4.2009   4.2067   4.2186
     4.2378   4.2549   4.3003   4.3058   4.3144   4.3185   4.3219   4.3329
     4.3480   4.3578   4.3673   4.3704   4.3808   4.3828   4.3944   4.4297
     4.4314   4.4335   4.4525   4.4660   4.4685   4.4917   4.5097   4.5127
     4.5189   4.5249   4.5281   4.5335   4.5363   4.5973   4.6326   4.6592
     4.6927   4.6992   4.7082   4.7184   4.7251   4.7466   4.7515   4.7643
     4.7727   4.8138   4.8721   4.8809   4.8820   4.8919   4.8962   4.8990
     4.9029   4.9299   4.9595   4.9748   4.9810   4.9914   4.9990   5.0116
     5.0294   5.0305   5.0353   5.0603   5.0821   5.1088   5.1115   5.1243
     5.1280   5.1512   5.1540   5.1908   5.2013   5.2160   5.2236   5.2291
     5.2317   5.2363   5.2602   5.2615   5.2657   5.2704   5.2755   5.2829
     5.2962   5.3188   5.3270   5.3321   5.3344   5.3403   5.3473   5.3510
     5.3545   5.3751   5.4062   5.4199   5.4279   5.4312   5.4608   5.4790
     5.4888   5.4962   5.5162   5.5163   5.5399   5.5452   5.5509   5.5548
     5.5724   5.6062   5.6110   5.6409   5.6477   5.6786   5.6971   5.6998
     5.7302   5.7482   5.7565   5.7621   5.7906   5.8117   5.8304   5.8486
     5.8597   5.8653   5.8928   5.8970   5.9059   5.9250   5.9599   5.9770
     5.9779   5.9953   5.9961   6.0131   6.0736   6.0940   6.0976   6.1165
     6.1178   6.1334   6.1428   6.1658   6.1747   6.1790   6.1961   6.2013
     6.2061   6.2193   6.2313   6.2339   6.2346   6.2527   6.2597   6.2669
     6.2937   6.3037   6.3139   6.3278   6.3361   6.3461   6.3461   6.3477
     6.3608   6.3716   6.3762   6.3777   6.3788   6.3905   6.3922   6.3924
     6.3956   6.3980   6.3989   6.4286   6.4318   6.4325   6.4346   6.4386
     6.4515   6.4561   6.4650   6.4676   6.4863   6.5116   6.5126   6.5340
     6.5459   6.5485   6.5645   6.5714   6.5745   6.5866   6.5872   6.5955
     6.5989   6.6009   6.6084   6.6330   6.6380   6.6526   6.6705   6.6968
     6.6974   6.7186   6.7243   6.7563   6.7603   6.8334   6.8526   6.8762
     6.9120   6.9125   6.9557   7.0798   7.5265   7.6699   7.7396   7.7970
     7.7987   7.8521   8.0376   8.0476   8.1461   8.2409   8.2771   8.3596
     8.4533   8.4654   8.5507   8.5855   8.7138   8.7751   8.7832   8.7920
     8.9272   8.9468   8.9508   9.0402   9.0557   9.1042   9.1965   9.2727
     9.2777   9.2965   9.3531   9.4610   9.5885   9.6441   9.6612   9.7175
     9.7598   9.8306   9.9042   9.9108   9.9361   9.9943   9.9979  10.0744
    10.5293  10.6510  10.8568  10.8655  10.9820  11.0636  11.0765  11.1450
    11.2293  11.2589  11.2642  11.3281  11.3375  11.3824  11.4667  11.7284
    11.8210  11.8825  11.9531  12.0478  12.0584  12.0968  12.3380  12.3798
    12.4489  12.5508  12.6089  12.6161  12.6195  12.6452  12.7843  12.8467
    12.8748  13.2439  13.2844  13.3197  13.3837  13.4641  13.4914  13.6762
    13.6814  13.7255  13.8092  13.8229  13.8832  13.9534  13.9593  13.9909
    13.9954  13.9984  14.0079

[...]

          k = 0.4583 0.2406 0.0000 ( 55107 PWs)   bands (ev):

     0.4901   0.7196   0.7834   0.8245   0.9952   1.0080   1.0910   1.2051
     1.2570   1.3854   1.4638   1.5912   1.6939   1.8291   1.8813   1.9455
     2.1292   2.2125   2.2303   2.2343   2.2907   2.3020   2.3255   2.3295
     2.3450   2.3581   2.3766   2.3992   2.4064   2.4123   2.4231   2.4264
     2.4283   2.4604   2.4839   2.4858   2.5136   2.5377   2.5648   2.5757
     2.5801   2.5881   2.5983   2.5986   2.6208   2.6352   2.6614   2.6942
     2.7150   2.7167   2.7268   2.7430   2.7451   2.7602   2.7758   2.7810
     2.8067   2.8148   2.8345   2.8372   2.8556   2.8596   2.8610   2.9118
     2.9197   2.9374   2.9569   3.0113   3.0221   3.0566   3.0677   3.0805
     3.0828   3.0852   3.1110   3.1308   3.1430   3.1803   3.1966   3.1989
     3.2090   3.2124   3.2233   3.2250   3.2283   3.2629   3.2674   3.3166
     3.3245   3.3292   3.3476   3.3607   3.3733   3.3733   3.3759   3.4096
     3.4139   3.4348   3.4389   3.4390   3.4644   3.4732   3.4749   3.4861
     3.4963   3.5063   3.5150   3.5187   3.5382   3.5390   3.5580   3.5710
     3.5765   3.5921   3.5983   3.6017   3.6211   3.6245   3.6253   3.6260
     3.6621   3.6934   3.6962   3.7152   3.7190   3.7210   3.7305   3.7344
     3.7458   3.7770   3.7904   3.8107   3.8253   3.8493   3.8557   3.8751
     3.9044   3.9165   3.9226   3.9246   3.9308   3.9784   3.9924   4.0057
     4.0126   4.0283   4.0391   4.0392   4.0686   4.0858   4.0913   4.0968
     4.0979   4.1142   4.1203   4.1296   4.1351   4.1425   4.1624   4.1639
     4.1649   4.1711   4.1783   4.1812   4.1972   4.1987   4.1995   4.1998
     4.2102   4.2141   4.2187   4.2309   4.2317   4.2317   4.2374   4.2389
     4.2503   4.2579   4.2678   4.2784   4.2827   4.3153   4.3280   4.3447
     4.3561   4.3626   4.3720   4.3895   4.4066   4.4267   4.4296   4.4344
     4.4626   4.4631   4.4842   4.4911   4.5224   4.5406   4.5500   4.5660
     4.5770   4.5908   4.6078   4.6397   4.6476   4.6522   4.6668   4.6845
     4.6860   4.6992   4.7037   4.7446   4.7456   4.7649   4.7789   4.7974
     4.8058   4.8114   4.8235   4.8281   4.8300   4.8586   4.8722   4.8739
     4.8800   4.8859   4.8884   4.8946   4.9184   4.9464   4.9534   4.9648
     4.9813   4.9912   4.9930   5.0146   5.0229   5.0341   5.0424   5.0587
     5.0607   5.0733   5.0783   5.0865   5.1212   5.1335   5.1353   5.1486
     5.1513   5.1554   5.1611   5.1618   5.1854   5.1901   5.1908   5.2043
     5.2071   5.2221   5.2284   5.2321   5.2392   5.2425   5.2462   5.2586
     5.2646   5.2835   5.2886   5.3118   5.3159   5.3274   5.3310   5.3446
     5.3554   5.3762   5.3806   5.3951   5.3952   5.3985   5.4130   5.4318
     5.4341   5.4459   5.4560   5.4575   5.4592   5.4743   5.4745   5.4949
     5.5089   5.5185   5.5320   5.5358   5.5553   5.5643   5.5678   5.5770
     5.5934   5.6045   5.6215   5.6447   5.6450   5.6471   5.6578   5.6787
     5.6856   5.7120   5.7296   5.7427   5.7490   5.7625   5.7690   5.7723
     5.7761   5.7979   5.8070   5.8105   5.8323   5.8579   5.8595   5.8760
     5.9019   5.9103   5.9460   5.9465   5.9578   5.9626   5.9684   5.9768
     6.0525   6.0560   6.0729   6.0731   6.0886   6.1066   6.1073   6.1077
     6.1223   6.1389   6.1397   6.1496   6.1570   6.1649   6.1816   6.1854
     6.2137   6.2188   6.2333   6.2467   6.2975   6.3309   6.3374   6.3453
     6.3622   6.3650   6.3764   6.3833   6.3851   6.3865   6.3943   6.4091
     6.4162   6.4483   6.4526   6.4778   6.4779   6.4783   6.5014   6.5172
     6.5363   6.5465   6.5480   6.5652   6.6057   6.6345   6.6368   6.6370
     6.6816   6.6915   6.6968   6.7462   6.9339   7.0625   7.1468   7.2575
     7.5253   7.5293   7.5832   7.6862   7.8060   7.8155   7.8493   7.8703
     8.0011   8.1133   8.1924   8.2136   8.2980   8.3494   8.4064   8.4240
     8.5149   8.6485   8.6488   8.6701   8.7882   8.9664   9.0637   9.1464
     9.2311   9.2985   9.3146   9.4963   9.5762   9.6972   9.8241  10.0040
    10.2244  10.2643  10.2981  10.3937  10.5520  10.5644  10.6809  10.9349
    11.0861  11.2965  11.4508  11.5487  11.6655  11.8309  11.9311  12.0006
    12.0633  12.2786  12.3150  12.3561  12.7415  12.7791  12.8733  12.8933
    12.9051  13.0223  13.0936  13.1006  13.1794  13.2270  13.2490  13.2590
    13.2945  13.3788  13.4403  13.4714  13.5037  13.5235  13.7596  13.7657
    13.8142  13.9331  13.9336  13.9393  14.0245  14.0485  14.0697  14.1267
    14.1607  14.2309  14.2429  14.3214  14.3738  14.4006  14.4227  14.5569
    14.6064  14.7682  14.8795

     the Fermi energy is     8.2691 ev

!    total energy              =   -7346.35669851 Ry
     estimated scf accuracy    <       0.00000079 Ry
     smearing contrib. (-TS)   =       0.09471303 Ry
     internal energy E=F+TS    =   -7346.45141154 Ry

     The total energy is F=E-TS. E is the sum of the following terms:
     one-electron contribution =  -33899.10991820 Ry
     hartree contribution      =   17698.23517551 Ry
     xc contribution           =   -3551.00868151 Ry
     ewald contribution        =   12405.43201266 Ry

     convergence has been achieved in  21 iterations

     negative rho (up, down):  1.957E+00 0.000E+00

     Forces acting on atoms (cartesian axes, Ry/au):

     atom    1 type  1   force =     0.00000000   -0.00165307    0.02679421
     atom    2 type  1   force =     0.00000000   -0.00165370    0.02679274
     atom    3 type  1   force =     0.00000000   -0.00165373    0.02679365
     atom    4 type  1   force =     0.00000000   -0.00165297    0.02679306
     atom    5 type  1   force =     0.00000007    0.00338453   -0.01640483
     atom    6 type  1   force =    -0.00000007    0.00338453   -0.01640483
     atom    7 type  1   force =    -0.00000007    0.00338437   -0.01640487
     atom    8 type  1   force =     0.00000007    0.00338437   -0.01640487
     atom    9 type  1   force =     0.00000000   -0.00163092   -0.00950737
     atom   10 type  1   force =     0.00000000   -0.00163070   -0.00950763
     atom   11 type  1   force =     0.00000000   -0.00163064   -0.00950731
     atom   12 type  1   force =     0.00000000   -0.00163030   -0.00950747
     atom   13 type  1   force =     0.00000000    0.00056310   -0.00376947
     atom   14 type  1   force =     0.00000000    0.00056327   -0.00376930
     atom   15 type  1   force =     0.00000003   -0.00053617    0.00466329
     atom   16 type  1   force =    -0.00000003   -0.00053617    0.00466329
     atom   17 type  1   force =     0.00000000    0.00056340   -0.00376920
     atom   18 type  1   force =     0.00000000    0.00056348   -0.00376916
     atom   19 type  1   force =    -0.00000004   -0.00053629    0.00466319
     atom   20 type  1   force =     0.00000004   -0.00053629    0.00466319
     atom   21 type  1   force =     0.00000000    0.00028183   -0.00069771
     atom   22 type  1   force =     0.00000000    0.00028178   -0.00069758
     atom   23 type  1   force =     0.00000004   -0.00044603   -0.00046605
     atom   24 type  1   force =     0.00000000    0.00028158   -0.00069773
     atom   25 type  1   force =     0.00000001   -0.00044610   -0.00046603
     atom   26 type  1   force =    -0.00000004   -0.00044603   -0.00046605
     atom   27 type  1   force =    -0.00000001   -0.00044610   -0.00046603
     atom   28 type  1   force =     0.00000000    0.00028173   -0.00069763
     atom   29 type  1   force =     0.00000002   -0.00018402    0.00041614
     atom   30 type  1   force =     0.00000000    0.00019520   -0.00054651
     atom   31 type  1   force =     0.00000005   -0.00018421    0.00041615
     atom   32 type  1   force =    -0.00000005   -0.00018421    0.00041615
     atom   33 type  1   force =    -0.00000002   -0.00018402    0.00041614
     atom   34 type  1   force =     0.00000000    0.00019512   -0.00054648
     atom   35 type  1   force =     0.00000000    0.00019540   -0.00054646
     atom   36 type  1   force =     0.00000000    0.00019530   -0.00054634
     atom   37 type  1   force =     0.00000000    0.00018589   -0.00041935
     atom   38 type  1   force =     0.00000000    0.00018592   -0.00041937
     atom   39 type  1   force =    -0.00000009   -0.00019464    0.00054542
     atom   40 type  1   force =     0.00000009   -0.00019464    0.00054542
     atom   41 type  1   force =     0.00000005   -0.00019464    0.00054527
     atom   42 type  1   force =     0.00000000    0.00018595   -0.00041935
     atom   43 type  1   force =     0.00000000    0.00018601   -0.00041939
     atom   44 type  1   force =    -0.00000005   -0.00019464    0.00054527
     atom   45 type  1   force =     0.00000000    0.00044677    0.00047069
     atom   46 type  1   force =     0.00000000    0.00044662    0.00047045
     atom   47 type  1   force =     0.00000000    0.00044684    0.00047066
     atom   48 type  1   force =     0.00000000    0.00044653    0.00047068
     atom   49 type  1   force =     0.00000005   -0.00028113    0.00069977
     atom   50 type  1   force =    -0.00000005   -0.00028113    0.00069977
     atom   51 type  1   force =    -0.00000007   -0.00028111    0.00069972
     atom   52 type  1   force =     0.00000007   -0.00028111    0.00069972
     atom   53 type  1   force =     0.00000000    0.00053731   -0.00466803
     atom   54 type  1   force =     0.00000006   -0.00056265    0.00376142
     atom   55 type  1   force =     0.00000013   -0.00056264    0.00376125
     atom   56 type  1   force =    -0.00000006   -0.00056265    0.00376142
     atom   57 type  1   force =    -0.00000013   -0.00056264    0.00376125
     atom   58 type  1   force =     0.00000000    0.00053687   -0.00466795
     atom   59 type  1   force =     0.00000000    0.00053717   -0.00466786
     atom   60 type  1   force =     0.00000000    0.00053702   -0.00466788
     atom   61 type  1   force =     0.00000004    0.00162934    0.00950643
     atom   62 type  1   force =     0.00000000   -0.00338278    0.01640264
     atom   63 type  1   force =     0.00000000   -0.00338296    0.01640266
     atom   64 type  1   force =     0.00000000   -0.00338290    0.01640289
     atom   65 type  1   force =     0.00000000   -0.00338270    0.01640216
     atom   66 type  1   force =    -0.00000018    0.00162891    0.00950635
     atom   67 type  1   force =    -0.00000004    0.00162934    0.00950643
     atom   68 type  1   force =     0.00000018    0.00162891    0.00950635
     atom   69 type  1   force =    -0.00000010    0.00164845   -0.02677974
     atom   70 type  1   force =     0.00000014    0.00164768   -0.02677986
     atom   71 type  1   force =     0.00000010    0.00164845   -0.02677974
     atom   72 type  1   force =    -0.00000014    0.00164768   -0.02677986

     Total force =     0.095159     Total SCF correction =     0.004125

     General routines

     Parallel routines

   This run was terminated on:   5:44:46   8Sep2021

   JOB DONE.