     Program PWSCF v.6.6 starts on 24Sep2021 at 22:58: 0

     K-points division:     npool     =       2
     R & G space division:  proc/nbgrp/npool/nimage =      12
     Fft bands division:     nmany     =       1
     Reading input from ../inputs/input_ausurf_432

     Current dimensions of program PWSCF are:
     Max number of different atomic species (ntypx) = 10
     Max number of k-points (npk) =  40000
     Max angular momentum in pseudopotentials (lmaxx) =  3

     Subspace diagonalization in iterative solution of the eigenvalue problem:
     one sub-group per band group will be used

     Found symmetry operation: I + (  0.1667  0.0000  0.0000)
     This is a supercell, fractional translations are disabled

     Title:
      Ausurf

     bravais-lattice index     =            8
     lattice parameter (alat)  =      33.4482  a.u.
     unit-cell volume          =   77333.9228 (a.u.)^3
     number of atoms/cell      =          432
     number of atomic types    =            1
     number of electrons       =      4752.00
     number of Kohn-Sham states=         2851
     kinetic-energy cutoff     =      40.0000  Ry
     charge density cutoff     =     350.0000  Ry
     convergence threshold     =      1.0E-06
     mixing beta               =       0.7000
     number of iterations used =            8  TF        mixing
     Exchange-correlation=  SLA  PW   PBE  PBE
                           (   1   4   3   4   0   0   0)

     celldm(1)=  33.448152  celldm(2)=   1.154701  celldm(3)=   1.789717
     celldm(4)=   0.000000  celldm(5)=   0.000000  celldm(6)=   0.000000

     crystal axes: (cart. coord. in units of alat)
               a(1) = (   1.000000   0.000000   0.000000 )
               a(2) = (   0.000000   1.154701   0.000000 )
               a(3) = (   0.000000   0.000000   1.789717 )

     reciprocal axes: (cart. coord. in units 2 pi/alat)
               b(1) = (  1.000000  0.000000  0.000000 )
               b(2) = (  0.000000  0.866025  0.000000 )
               b(3) = (  0.000000  0.000000  0.558748 )

     PseudoPot. # 1 for Au read from file:
     /marconi/home/userexternal/czeni000/dft_src/pseudo/Au.pbe-nd-van.UPF
     MD5 check sum: deb5c07af10777505a79e28f5b4b4115
     Pseudo is Ultrasoft + core correction, Zval = 11.0
     Generated by new atomic code, or converted to UPF format
     Using radial grid of  985 points,  3 beta functions with:
                l(1) =   1
                l(2) =   2
                l(3) =   2
     Q(r) pseudized with  8 coefficients,  rinner =    1.100   1.100   1.100
                                                       1.100   1.100

     atomic species   valence    mass     pseudopotential
        Au            11.00   196.96000     Au( 1.00)

      2 Sym. Ops. (no inversion) found

   Cartesian axes

     site n.     atom                  positions (alat units)
         1           Au  tau(   1) = (   0.0000000   0.0000000   0.0000000  )
         2           Au  tau(   2) = (   0.1666667   0.0000000   0.0000000  )
         3           Au  tau(   3) = (   0.3333333   0.0000000   0.0000000  )
         4           Au  tau(   4) = (   0.0000000   0.2886751   0.0000000  )
         5           Au  tau(   5) = (   0.5000000   0.0000000   0.0000000  )
         6           Au  tau(   6) = (   0.1666667   0.2886751   0.0000000  )
         7           Au  tau(   7) = (   0.6666667   0.0000000   0.0000000  )
         8           Au  tau(   8) = (   0.3333333   0.2886751   0.0000000  )
         9           Au  tau(   9) = (   0.8333333   0.0000000   0.0000000  )
        10           Au  tau(  10) = (   0.0000000   0.5773503   0.0000000  )
        11           Au  tau(  11) = (   0.5000000   0.2886751   0.0000000  )
        12           Au  tau(  12) = (   0.1666667   0.5773503   0.0000000  )
        13           Au  tau(  13) = (   0.6666667   0.2886751   0.0000000  )
        14           Au  tau(  14) = (   0.3333333   0.5773503   0.0000000  )
        15           Au  tau(  15) = (   0.8333333   0.2886751   0.0000000  )
        16           Au  tau(  16) = (   0.0000000   0.8660254   0.0000000  )
        17           Au  tau(  17) = (   0.5000000   0.5773503   0.0000000  )
        18           Au  tau(  18) = (   0.1666667   0.8660254   0.0000000  )
        19           Au  tau(  19) = (   0.6666667   0.5773503   0.0000000  )
        20           Au  tau(  20) = (   0.3333333   0.8660254   0.0000000  )
        21           Au  tau(  21) = (   0.8333333   0.5773503   0.0000000  )
        22           Au  tau(  22) = (   0.5000000   0.8660254   0.0000000  )
        23           Au  tau(  23) = (   0.6666667   0.8660254   0.0000000  )
        24           Au  tau(  24) = (   0.8333333   0.8660254   0.0000000  )
        25           Au  tau(  25) = (   0.0833333   0.0481125   0.1360828  )
        26           Au  tau(  26) = (   0.2500000   0.0481125   0.1360828  )
        27           Au  tau(  27) = (   0.4166667   0.0481125   0.1360828  )
        28           Au  tau(  28) = (   0.0833333   0.3367877   0.1360828  )
        29           Au  tau(  29) = (   0.4166667   0.3367877   0.1360828  )
        30           Au  tau(  30) = (   0.5833333   0.0481125   0.1360828  )
        31           Au  tau(  31) = (   0.9166667   0.0481125   0.1360828  )
        32           Au  tau(  32) = (   0.0833333   0.6254628   0.1360828  )
        33           Au  tau(  33) = (   0.2500000   0.3367877   0.1360828  )
        34           Au  tau(  34) = (   0.2500000   0.6254628   0.1360828  )
        35           Au  tau(  35) = (   0.5833333   0.3367877   0.1360828  )
        36           Au  tau(  36) = (   0.7500000   0.0481125   0.1360828  )
        37           Au  tau(  37) = (   0.7500000   0.3367877   0.1360828  )
        38           Au  tau(  38) = (   0.1666667   0.1924501   0.1360828  )
        39           Au  tau(  39) = (   0.1666667   0.4811252   0.1360828  )
        40           Au  tau(  40) = (   0.6666667   0.1924501   0.1360828  )
        41           Au  tau(  41) = (   0.2500000   0.9141379   0.1360828  )
        42           Au  tau(  42) = (   0.4166667   0.6254628   0.1360828  )
        43           Au  tau(  43) = (   0.7500000   0.6254628   0.1360828  )
        44           Au  tau(  44) = (   0.9166667   0.3367877   0.1360828  )
        45           Au  tau(  45) = (   0.3333333   0.1924501   0.1360828  )
        46           Au  tau(  46) = (   0.5000000   0.1924501   0.1360828  )
        47           Au  tau(  47) = (   0.0833333   0.9141379   0.1360828  )
        48           Au  tau(  48) = (   0.4166667   0.9141379   0.1360828  )
        49           Au  tau(  49) = (   0.5833333   0.6254628   0.1360828  )
        50           Au  tau(  50) = (   0.5833333   0.9141379   0.1360828  )
        51           Au  tau(  51) = (   0.9166667   0.6254628   0.1360828  )
        52           Au  tau(  52) = (   0.3333333   0.4811252   0.1360828  )
        53           Au  tau(  53) = (   0.5000000   0.4811252   0.1360828  )
        54           Au  tau(  54) = (   0.5000000   0.7698003   0.1360828  )
        55           Au  tau(  55) = (   0.8333333   0.1924501   0.1360828  )
        56           Au  tau(  56) = (   1.0000000   0.1924501   0.1360828  )
        57           Au  tau(  57) = (   1.0000000   0.4811252   0.1360828  )
        58           Au  tau(  58) = (   0.7500000   0.9141379   0.1360828  )
        59           Au  tau(  59) = (   0.1666667   0.7698003   0.1360828  )
        60           Au  tau(  60) = (   0.3333333   0.7698003   0.1360828  )
[...]
       418           Au  tau( 418) = (   0.2500000   0.1443376   1.2247449  )
       419           Au  tau( 419) = (   0.2500000   0.4330127   1.2247449  )
       420           Au  tau( 420) = (   0.4166667   0.1443376   1.2247449  )
       421           Au  tau( 421) = (   0.4166667   0.7216879   1.2247449  )
       422           Au  tau( 422) = (   0.5833333   0.1443376   1.2247449  )
       423           Au  tau( 423) = (   0.5833333   0.7216879   1.2247449  )
       424           Au  tau( 424) = (   0.7500000   0.1443376   1.2247449  )
       425           Au  tau( 425) = (   0.9166667   0.4330127   1.2247449  )
       426           Au  tau( 426) = (   0.5833333   1.0103630   1.2247449  )
       427           Au  tau( 427) = (   0.7500000   1.0103630   1.2247449  )
       428           Au  tau( 428) = (   0.9166667   1.0103630   1.2247449  )
       429           Au  tau( 429) = (   0.2500000   1.0103630   1.2247449  )
       430           Au  tau( 430) = (   0.4166667   1.0103630   1.2247449  )
       431           Au  tau( 431) = (   0.7500000   0.7216879   1.2247449  )
       432           Au  tau( 432) = (   0.9166667   0.7216879   1.2247449  )

     number of k points=     4  Marzari-Vanderbilt smearing, width (Ry)=  0.0500
                       cart. coord. in units 2pi/alat
        k(    1) = (   0.1250000   0.1082532   0.0000000), wk =   0.5000000
        k(    2) = (   0.1250000   0.3247595   0.0000000), wk =   0.5000000
        k(    3) = (   0.3750000   0.1082532   0.0000000), wk =   0.5000000
        k(    4) = (   0.3750000   0.3247595   0.0000000), wk =   0.5000000

     Initial potential from superposition of free atoms

     starting charge 4746.98365, renormalised to 4752.00000

     negative rho (up, down):  1.152E+01 0.000E+00
     Starting wfcs are 3888 randomized atomic wfcs

     Self-consistent Calculation

     iteration #  1     ecut=    40.00 Ry     beta= 0.70
     Davidson diagonalization with overlap
     ethr =  1.00E-02,  avg # of iterations =  3.0

     Threshold (ethr) on eigenvalues was too large:
     Diagonalizing with lowered threshold

     Davidson diagonalization with overlap
     ethr =  3.34E-04,  avg # of iterations =  4.2

     negative rho (up, down):  1.095E+01 0.000E+00

     total energy              =  -44077.60657518 Ry
     estimated scf accuracy    <      18.95738568 Ry

[...]

     iteration #  5     ecut=    40.00 Ry     beta= 0.70
     Davidson diagonalization with overlap
     c_bands:  1 eigenvalues not converged
     ethr =  5.11E-05,  avg # of iterations = 19.0

[...]

     total energy              =  -44078.14019465 Ry
     estimated scf accuracy    <       0.00000152 Ry

     iteration # 23     ecut=    40.00 Ry     beta= 0.70
     Davidson diagonalization with overlap
     ethr =  3.21E-11,  avg # of iterations =  3.8

[...]

     End of self-consistent calculation

          k = 0.1250 0.1083 0.0000 (330335 PWs)   bands (ev):

    -0.8186  -0.4827  -0.4768  -0.3733  -0.2668  -0.1473  -0.0896  -0.0572
    -0.0401   0.0200   0.0628   0.1473   0.2076   0.2352   0.2657   0.3412
     0.4002   0.4462   0.4617   0.5183   0.5429   0.5961   0.6021   0.7003
     0.7096   0.7366   0.8848   0.9107   0.9153   0.9199   0.9698   0.9865
     1.0152   1.0410   1.1037   1.1198   1.1346   1.1662   1.1716   1.1992
     1.2424   1.2496   1.2681   1.2861   1.2894   1.2926   1.3019   1.4025
     1.4297   1.4318   1.4383   1.4416   1.4557   1.4562   1.4592   1.4810
     1.4989   1.5082   1.5205   1.5209   1.5243   1.5363   1.5602   1.5637
     1.5779   1.6021   1.6083   1.6097   1.6125   1.6139   1.6140   1.6229
[...]
     1.9474   1.9556   1.9558   1.9570   1.9674   1.9679   1.9802   1.9822
     1.9850   1.9916   1.9987   2.0114   2.0129   2.0159   2.0173   2.0212
     2.0264   2.0278   2.0322   2.0357   2.0413   2.0441   2.0451   2.0454
     2.0514   2.0613   2.0653   2.0680   2.0760   2.0815   2.0935   2.0976
     2.1006   2.1022   2.1187   2.1193   2.1198   2.1230   2.1231   2.1236
     2.1247   2.1252   2.1276   2.1291   2.1375   2.1408   2.1441   2.1502
     2.1508   2.1520   2.1554   2.1571   2.1585   2.1604   2.1641   2.1653
     2.1661   2.1763   2.1786   2.1822   2.1827   2.1957   2.2031   2.2041
     2.2101   2.2119   2.2129   2.2157   2.2187   2.2191   2.2191   2.2196
     2.2231   2.2264   2.2275   2.2325   2.2377   2.2411   2.2434   2.2448
     2.2478   2.2507   2.2578   2.2599   2.2612   2.2634   2.2684   2.2762
     2.2904   2.2919   2.2982   2.2990   2.2997   2.3022   2.3070   2.3079
     2.3085   2.3096   2.3106   2.3113   2.3123   2.3155   2.3200   2.3208
     2.3248   2.3254   2.3261   2.3281   2.3283   2.3333   2.3343   2.3435
     2.3465   2.3512   2.3532   2.3553   2.3597   2.3633   2.3669   2.3721
     2.3727   2.3754   2.3858   2.3864   2.3882   2.3896   2.3904   2.3923
     2.3941   2.3990   2.4023   2.4123   2.4127   2.4129   2.4157   2.4160
     2.4258   2.4264   2.4308   2.4339   2.4418   2.4432   2.4442   2.4462
     2.4468   2.4482   2.4495   2.4499   2.4519   2.4521   2.4558   2.4604
     2.4651   2.4728   2.4739   2.4751   2.4765   2.4823   2.4850   2.4851
     2.4855   2.4888   2.4912   2.4952   2.4982   2.5037   2.5099   2.5115
     2.5118   2.5123   2.5183   2.5191   2.5199   2.5231   2.5232   2.5247
     2.5341   2.5368   2.5379   2.5414   2.5440   2.5458   2.5471   2.5513
     2.5540   2.5569   2.5722   2.5758   2.5779   2.5780   2.5783   2.5813
     2.5819   2.5822   2.5846   2.5849   2.5872   2.5935   2.5946   2.5951
     2.5962   2.5967   2.6017   2.6043   2.6058   2.6115   2.6176   2.6263
     2.6264   2.6283   2.6326   2.6329   2.6355   2.6360   2.6377   2.6391
     2.6444   2.6522   2.6611   2.6642   2.6653   2.6668   2.6741   2.6753
     2.6759   2.6801   2.6816   2.6825   2.6892   2.6903   2.6915   2.6957
     2.6969   2.7011   2.7023   2.7070   2.7138   2.7150   2.7151   2.7206
     2.7228   2.7254   2.7257   2.7266   2.7271   2.7297   2.7346   2.7367
     2.7398   2.7410   2.7410   2.7441   2.7443   2.7524   2.7542   2.7586
     2.7645   2.7672   2.7693   2.7698   2.7799   2.7801   2.7819   2.7828
     2.7829   2.7832   2.7866   2.7883   2.7887   2.7890   2.7952   2.7989
     2.7999   2.8037   2.8112   2.8136   2.8149   2.8168   2.8174   2.8185
     2.8212   2.8272   2.8286   2.8375   2.8400   2.8471   2.8480   2.8506
     2.8518   2.8535   2.8537   2.8597   2.8608   2.8610   2.8610   2.8626
     2.8698   2.8752   2.8827   2.8939   2.8959   2.8969   2.8988   2.9018
     2.9022   2.9040   2.9042   2.9055   2.9089   2.9141   2.9144   2.9152
     2.9249   2.9271   2.9305   2.9313   2.9331   2.9340   2.9355   2.9359
     2.9446   2.9501   2.9631   2.9646   2.9657   2.9660   2.9684   2.9721
     2.9726   2.9765   2.9775   2.9983   3.0080   3.0097   3.0123   3.0131
     3.0162   3.0278   3.0281   3.0359   3.0377   3.0378   3.0391   3.0406
     3.0422   3.0543   3.0547   3.0620   3.0643   3.0683   3.0720   3.0797
     3.0807   3.0822   3.0850   3.0851   3.0919   3.0973   3.0976   3.0977
     3.0987   3.0991   3.1050   3.1090   3.1139   3.1178   3.1236   3.1260
[...]
    13.3816  13.3859  13.3899  13.4013  13.4135  13.4185  13.4279  13.4302
    13.4325  13.4657  13.4715  13.4737  13.5035  13.5062  13.5104  13.5341
    13.5498  13.5699  13.5751  13.5874  13.5911  13.6077  13.6097  13.6199
    13.6202  13.6514  13.6601  13.6738  13.6853  13.6856  13.6955  13.7060
    13.7162  13.7210  13.7286  13.7548  13.7639  13.7695  13.7712  13.7714
    13.7756  13.8006  13.8182  13.8182  13.8193  13.8244  13.8289  13.8302
    13.8325  13.8368  13.8621  13.8959  13.9031  13.9039  13.9132  13.9152
    13.9264  13.9378  13.9576  13.9730  13.9905  13.9953  13.9965  14.0050
    14.0229  14.0300  14.0310  14.0542  14.0576  14.0732  14.0855  14.1160
    14.1178  14.1196  14.1502  14.1515  14.1523  14.1566  14.1588  14.1629
    14.1631  14.1649  14.1874  14.1920  14.2046  14.2507  14.2527  14.2827
    14.2910  14.2957  14.3036  14.3120  14.3277  14.3298  14.3469  14.3716
    14.3820  14.3842  14.4014  14.4021  14.4066  14.4102  14.4228  14.4259
    14.4572  14.4596  14.4621  14.5032  14.5058  14.5119  14.5780  14.5837
    14.6057  14.6314  14.6475

[...]

          k = 0.3750 0.3248 0.0000 (330443 PWs)   bands (ev):

    -0.6864  -0.5746  -0.5377  -0.4280  -0.3467  -0.2370  -0.2008  -0.0936
     0.0632   0.1477   0.1998   0.2546   0.2901   0.2941   0.3564   0.3808
     0.3830   0.3938   0.4899   0.5120   0.6015   0.6587   0.6674   0.6842
     0.7224   0.7387   0.7857   0.8271   0.8433   0.8625   0.8962   0.9509
     0.9632   0.9667   1.0143   1.0490   1.0954   1.1201   1.1371   1.1485
     1.1572   1.2135   1.2455   1.2657   1.3386   1.3489   1.3595   1.3763
     1.3833   1.3847   1.3859   1.4023   1.4063   1.4720   1.4834   1.4859
     1.5008   1.5215   1.5582   1.5633   1.5729   1.5768   1.5788   1.6007
     1.6088   1.6095   1.6150   1.6300   1.6306   1.6518   1.6632   1.6703
     1.6737   1.6897   1.6898   1.6924   1.6966   1.7017   1.7101   1.7103
     1.7254   1.7652   1.7734   1.7764   1.7778   1.7788   1.7851   1.7856
     1.7918   1.7977   1.8101   1.8150   1.8173   1.8220   1.8253   1.8339
     1.8393   1.8486   1.8565   1.8727   1.8778   1.8843   1.8849   1.8926
     1.8931   1.8949   1.8996   1.9199   1.9208   1.9226   1.9260   1.9301
     1.9328   1.9366   1.9459   1.9538   1.9554   1.9581   1.9597   1.9618
     1.9664   1.9717   1.9914   2.0005   2.0018   2.0061   2.0114   2.0197
     2.0210   2.0286   2.0406   2.0437   2.0516   2.0552   2.0594   2.0595
     2.0606   2.0672   2.0699   2.0744   2.0770   2.0797   2.0834   2.0913
     2.0939   2.1046   2.1079   2.1133   2.1167   2.1230   2.1233   2.1269
     2.1295   2.1299   2.1345   2.1361   2.1367   2.1398   2.1570   2.1572
     2.1636   2.1664   2.1760   2.1864   2.1913   2.1922   2.1984   2.2003
     2.2017   2.2073   2.2102   2.2116   2.2127   2.2245   2.2263   2.2267
     2.2272   2.2319   2.2328   2.2333   2.2352   2.2358   2.2449   2.2463
     2.2502   2.2534   2.2551   2.2599   2.2652   2.2663   2.2683   2.2700
     2.2724   2.2730   2.2733   2.2776   2.2813   2.2817   2.2818   2.2844
     2.2879   2.2881   2.2974   2.3014   2.3050   2.3060   2.3060   2.3076
     2.3101   2.3111   2.3142   2.3184   2.3205   2.3225   2.3228   2.3308
     2.3353   2.3400   2.3401   2.3413   2.3438   2.3461   2.3504   2.3508
     2.3540   2.3570   2.3599   2.3638   2.3650   2.3662   2.3678   2.3684
     2.3700   2.3743   2.3750   2.3753   2.3762   2.3801   2.3896   2.4009
     2.4039   2.4041   2.4050   2.4139   2.4146   2.4193   2.4202   2.4205
     2.4222   2.4229   2.4235   2.4243   2.4295   2.4299   2.4333   2.4409
     2.4439   2.4450   2.4454   2.4456   2.4481   2.4489   2.4491   2.4518
     2.4535   2.4563   2.4600   2.4600   2.4613   2.4652   2.4681   2.4702
     2.4725   2.4847   2.4894   2.4951   2.4955   2.4961   2.4961   2.4963
     2.5003   2.5011   2.5067   2.5081   2.5099   2.5166   2.5208   2.5236
     2.5261   2.5289   2.5293   2.5305   2.5330   2.5357   2.5372   2.5409
     2.5438   2.5444   2.5455   2.5503   2.5532   2.5552   2.5564   2.5627
     2.5674   2.5678   2.5711   2.5741   2.5749   2.5751   2.5828   2.5828
     2.5832   2.5838   2.5849   2.5881   2.5914   2.6021   2.6058   2.6081
     2.6090   2.6113   2.6116   2.6132   2.6137   2.6200   2.6330   2.6363
     2.6373   2.6414   2.6436   2.6452   2.6512   2.6541   2.6587   2.6659
     2.6713   2.6724   2.6735   2.6765   2.6785   2.6788   2.6813   2.6830
     2.6852   2.6876   2.6881   2.6922   2.6927   2.6953   2.6960   2.7089
     2.7105   2.7111   2.7138   2.7140   2.7269   2.7302   2.7305   2.7311
     2.7331   2.7359   2.7391   2.7397   2.7409   2.7428   2.7454   2.7479
     2.7577   2.7605   2.7611   2.7617   2.7628   2.7673   2.7679   2.7689
     2.7730   2.7780   2.7784   2.7789   2.7808   2.7851   2.7866   2.7885
     2.7922   2.7939   2.7963   2.7965   2.7993   2.8077   2.8081   2.8085
     2.8085   2.8134   2.8145   2.8161   2.8164   2.8174   2.8204   2.8212
     2.8236   2.8272   2.8313   2.8386   2.8399   2.8400   2.8463   2.8491
     2.8528   2.8631   2.8633   2.8648   2.8698   2.8702   2.8729   2.8774
     2.8775   2.8796   2.8852   2.8906   2.8970   2.9001   2.9025   2.9087
     2.9096   2.9108   2.9148   2.9204   2.9229   2.9394   2.9398   2.9616
     2.9630   2.9653   2.9661   2.9726   2.9741   2.9779   2.9874   2.9878
     2.9933   2.9986   2.9992   3.0066   3.0074   3.0143   3.0159   3.0159
     3.0167   3.0214   3.0249   3.0253   3.0324   3.0411   3.0411   3.0477
     3.0504   3.0618   3.0626   3.0638   3.0653   3.0710   3.0822   3.0823
     3.0846   3.0867   3.0953   3.0954   3.0974   3.0987   3.1008   3.1009
     3.1016   3.1120   3.1133   3.1164   3.1179   3.1221   3.1257   3.1287
[...]
    13.3936  13.3954  13.4078  13.4106  13.4372  13.4742  13.4789  13.4813
    13.4892  13.4927  13.4959  13.5140  13.5228  13.5230  13.5366  13.5484
    13.5488  13.5580  13.5684  13.5819  13.5849  13.5901  13.6046  13.6389
    13.6444  13.6708  13.6786  13.6968  13.7056  13.7058  13.7074  13.7128
    13.7483  13.7489  13.7607  13.7636  13.7695  13.7707  13.7717  13.8005
    13.8110  13.8264  13.8524  13.8664  13.8668  13.8709  13.8789  13.8884
    13.8887  13.8912  13.9075  13.9270  13.9380  13.9502  13.9627  13.9714
    14.0422  14.0485  14.0539  14.0790  14.0838  14.0894  14.0901  14.1265
    14.1280  14.1415  14.1534  14.1557  14.1598  14.1621  14.1673  14.1759
    14.1870  14.1947  14.2094  14.2199  14.2285  14.2291  14.2325  14.2395
    14.2526  14.2672  14.2682  14.2689  14.2989  14.3171  14.3420  14.3436
    14.3477  14.3540  14.3604  14.3681  14.4007  14.4183  14.4221  14.4262
    14.4283  14.4331  14.4477  14.4518  14.4640  14.4744  14.4951  14.4981
    14.5122  14.5305  14.5430  14.5732  14.5832  14.6090  14.6341  14.6442
    14.6696  14.7554  14.7585

     the Fermi energy is     8.2691 ev

!    total energy              =  -44078.14019450 Ry
     estimated scf accuracy    <       0.00000093 Ry
     smearing contrib. (-TS)   =       0.56934692 Ry
     internal energy E=F+TS    =  -44078.70954142 Ry

     The total energy is F=E-TS. E is the sum of the following terms:
     one-electron contribution = -203395.96365577 Ry
     hartree contribution      =  106190.70723484 Ry
     xc contribution           =  -21306.04522331 Ry
     ewald contribution        =   74432.59210282 Ry

     convergence has been achieved in  23 iterations

     negative rho (up, down):  1.175E+01 0.000E+00

     Forces acting on atoms (cartesian axes, Ry/au):

     atom    1 type  1   force =     0.00000000   -0.00165569    0.02670384
     atom    2 type  1   force =    -0.00000104   -0.00165275    0.02671152
     atom    3 type  1   force =     0.00000107   -0.00165291    0.02671153
     atom    4 type  1   force =     0.00000000   -0.00165604    0.02670359
     atom    5 type  1   force =     0.00000000   -0.00165600    0.02670388
     atom    6 type  1   force =    -0.00000119   -0.00165312    0.02671152
     atom    7 type  1   force =    -0.00000107   -0.00165291    0.02671153
     atom    8 type  1   force =     0.00000102   -0.00165315    0.02671151
     atom    9 type  1   force =     0.00000104   -0.00165275    0.02671152
     atom   10 type  1   force =     0.00000000   -0.00165615    0.02670383
     atom   11 type  1   force =     0.00000000   -0.00165606    0.02670373
     atom   12 type  1   force =    -0.00000126   -0.00165311    0.02671156
     atom   13 type  1   force =    -0.00000102   -0.00165315    0.02671151
     atom   14 type  1   force =     0.00000096   -0.00165302    0.02671161
     atom   15 type  1   force =     0.00000119   -0.00165312    0.02671152
     atom   16 type  1   force =     0.00000000   -0.00165601    0.02670387
     atom   17 type  1   force =     0.00000000   -0.00165611    0.02670386
     atom   18 type  1   force =    -0.00000110   -0.00165297    0.02671162
     atom   19 type  1   force =    -0.00000096   -0.00165302    0.02671161
     atom   20 type  1   force =     0.00000110   -0.00165291    0.02671162
     atom   21 type  1   force =     0.00000126   -0.00165311    0.02671156
     atom   22 type  1   force =     0.00000000   -0.00165581    0.02670380
     atom   23 type  1   force =    -0.00000110   -0.00165291    0.02671162
     atom   24 type  1   force =     0.00000110   -0.00165297    0.02671162
     atom   25 type  1   force =     0.00000026    0.00334820   -0.01664599
     atom   26 type  1   force =    -0.00000005    0.00334922   -0.01664752
     atom   27 type  1   force =    -0.00000026    0.00334816   -0.01664599
     atom   28 type  1   force =     0.00000020    0.00334806   -0.01664607
     atom   29 type  1   force =    -0.00000030    0.00334800   -0.01664593
     atom   30 type  1   force =     0.00000026    0.00334816   -0.01664599
     atom   31 type  1   force =    -0.00000026    0.00334820   -0.01664599
     atom   32 type  1   force =     0.00000024    0.00334809   -0.01664596
     atom   33 type  1   force =    -0.00000007    0.00334903   -0.01664751
     atom   34 type  1   force =    -0.00000008    0.00334917   -0.01664736
     atom   35 type  1   force =     0.00000030    0.00334800   -0.01664593
     atom   36 type  1   force =     0.00000005    0.00334922   -0.01664752
     atom   37 type  1   force =     0.00000007    0.00334903   -0.01664751
     atom   38 type  1   force =    -0.00000074   -0.00159044   -0.00973553
     atom   39 type  1   force =    -0.00000075   -0.00159043   -0.00973550
     atom   40 type  1   force =    -0.00000065   -0.00159047   -0.00973545
     atom   41 type  1   force =     0.00000001    0.00334927   -0.01664735
     atom   42 type  1   force =    -0.00000029    0.00334817   -0.01664584
     atom   43 type  1   force =     0.00000008    0.00334917   -0.01664736
     atom   44 type  1   force =    -0.00000020    0.00334806   -0.01664607
     atom   45 type  1   force =     0.00000065   -0.00159047   -0.00973545
     atom   46 type  1   force =     0.00000000   -0.00159108   -0.00972926
     atom   47 type  1   force =     0.00000027    0.00334826   -0.01664584
     atom   48 type  1   force =    -0.00000024    0.00334827   -0.01664586
     atom   49 type  1   force =     0.00000029    0.00334817   -0.01664584
     atom   50 type  1   force =     0.00000024    0.00334827   -0.01664586
     atom   51 type  1   force =    -0.00000024    0.00334809   -0.01664596
     atom   52 type  1   force =     0.00000061   -0.00159042   -0.00973536
     atom   53 type  1   force =     0.00000000   -0.00159100   -0.00972920
     atom   54 type  1   force =     0.00000000   -0.00159095   -0.00972922
     atom   55 type  1   force =     0.00000074   -0.00159044   -0.00973553
     atom   56 type  1   force =     0.00000000   -0.00159101   -0.00972940
     atom   57 type  1   force =     0.00000000   -0.00159101   -0.00972939
     atom   58 type  1   force =    -0.00000001    0.00334927   -0.01664735
     atom   59 type  1   force =    -0.00000072   -0.00159050   -0.00973534
     atom   60 type  1   force =     0.00000069   -0.00159040   -0.00973534
[...]
     atom  418 type  1   force =    -0.00000013    0.00165120   -0.02669097
     atom  419 type  1   force =    -0.00000015    0.00165098   -0.02669119
     atom  420 type  1   force =     0.00000040    0.00165122   -0.02669764
     atom  421 type  1   force =     0.00000048    0.00165130   -0.02669771
     atom  422 type  1   force =    -0.00000040    0.00165122   -0.02669764
     atom  423 type  1   force =    -0.00000048    0.00165130   -0.02669771
     atom  424 type  1   force =     0.00000013    0.00165120   -0.02669097
     atom  425 type  1   force =     0.00000061    0.00165111   -0.02669749
     atom  426 type  1   force =    -0.00000040    0.00165144   -0.02669771
     atom  427 type  1   force =     0.00000005    0.00165140   -0.02669116
     atom  428 type  1   force =     0.00000051    0.00165142   -0.02669760
     atom  429 type  1   force =    -0.00000005    0.00165140   -0.02669116
     atom  430 type  1   force =     0.00000040    0.00165144   -0.02669771
     atom  431 type  1   force =     0.00000006    0.00165117   -0.02669129
     atom  432 type  1   force =     0.00000062    0.00165110   -0.02669776

     Total force =     0.233839     Total SCF correction =     0.005293

     General routines

     Parallel routines

   This run was terminated on:   5:22:30  25Sep2021

   JOB DONE.