     Program PWSCF v.6.6 starts on 22Sep2021 at 21:55:59

     K-points division:     npool     =       8
     R & G space division:  proc/nbgrp/npool/nimage =      12
     Fft bands division:     nmany     =       1
     Reading input from ../inputs/input_ausurf_288

     Current dimensions of program PWSCF are:
     Max number of different atomic species (ntypx) = 10
     Max number of k-points (npk) =  40000
     Max angular momentum in pseudopotentials (lmaxx) =  3

     Subspace diagonalization in iterative solution of the eigenvalue problem:
     one sub-group per band group will be used

     Found symmetry operation: I + (  0.2500  0.0000  0.0000)
     This is a supercell, fractional translations are disabled
     Message from routine divide_et_impera:
     suboptimal parallelization: some nodes have no k-points

     Title:
      Ausurf

     bravais-lattice index     =            8
     lattice parameter (alat)  =      22.2988  a.u.
     unit-cell volume          =   51555.9485 (a.u.)^3
     number of atoms/cell      =          288
     number of atomic types    =            1
     number of electrons       =      3168.00
     number of Kohn-Sham states=         1901
     kinetic-energy cutoff     =      40.0000  Ry
     charge density cutoff     =     350.0000  Ry
     convergence threshold     =      1.0E-06
     mixing beta               =       0.7000
     number of iterations used =            8  TF        mixing
     Exchange-correlation=  SLA  PW   PBE  PBE
                           (   1   4   3   4   0   0   0)

     celldm(1)=  22.298768  celldm(2)=   1.732051  celldm(3)=   2.684575
     celldm(4)=   0.000000  celldm(5)=   0.000000  celldm(6)=   0.000000

     crystal axes: (cart. coord. in units of alat)
               a(1) = (   1.000000   0.000000   0.000000 )
               a(2) = (   0.000000   1.732051   0.000000 )
               a(3) = (   0.000000   0.000000   2.684575 )

     reciprocal axes: (cart. coord. in units 2 pi/alat)
               b(1) = (  1.000000  0.000000  0.000000 )
               b(2) = (  0.000000  0.577350  0.000000 )
               b(3) = (  0.000000  0.000000  0.372498 )

     PseudoPot. # 1 for Au read from file:
     /marconi/home/userexternal/czeni000/dft_src/pseudo/Au.pbe-nd-van.UPF
     MD5 check sum: deb5c07af10777505a79e28f5b4b4115
     Pseudo is Ultrasoft + core correction, Zval = 11.0
     Generated by new atomic code, or converted to UPF format
     Using radial grid of  985 points,  3 beta functions with:
                l(1) =   1
                l(2) =   2
                l(3) =   2
     Q(r) pseudized with  8 coefficients,  rinner =    1.100   1.100   1.100
                                                       1.100   1.100

     atomic species   valence    mass     pseudopotential
        Au            11.00   196.96000     Au( 1.00)

      2 Sym. Ops. (no inversion) found

   Cartesian axes

     site n.     atom                  positions (alat units)
         1           Au  tau(   1) = (   0.0000000   0.0000000   0.0000000  )
         2           Au  tau(   2) = (   0.2500000   0.0000000   0.0000000  )
         3           Au  tau(   3) = (   0.5000000   0.0000000   0.0000000  )
         4           Au  tau(   4) = (   0.0000000   0.4330127   0.0000000  )
         5           Au  tau(   5) = (   0.7500000   0.0000000   0.0000000  )
         6           Au  tau(   6) = (   0.2500000   0.4330127   0.0000000  )
         7           Au  tau(   7) = (   0.5000000   0.4330127   0.0000000  )
         8           Au  tau(   8) = (   0.0000000   0.8660254   0.0000000  )
         9           Au  tau(   9) = (   0.7500000   0.4330127   0.0000000  )
        10           Au  tau(  10) = (   0.2500000   0.8660254   0.0000000  )
        11           Au  tau(  11) = (   0.5000000   0.8660254   0.0000000  )
        12           Au  tau(  12) = (   0.0000000   1.2990381   0.0000000  )
        13           Au  tau(  13) = (   0.7500000   0.8660254   0.0000000  )
        14           Au  tau(  14) = (   0.2500000   1.2990381   0.0000000  )
        15           Au  tau(  15) = (   0.5000000   1.2990381   0.0000000  )
        16           Au  tau(  16) = (   0.7500000   1.2990381   0.0000000  )
        17           Au  tau(  17) = (   0.1250000   0.0721688   0.2041242  )
        18           Au  tau(  18) = (   0.3750000   0.0721688   0.2041242  )
        19           Au  tau(  19) = (   0.6250000   0.0721688   0.2041242  )
        20           Au  tau(  20) = (   0.1250000   0.5051815   0.2041242  )
        21           Au  tau(  21) = (   0.6250000   0.5051815   0.2041242  )
        22           Au  tau(  22) = (   0.8750000   0.0721688   0.2041242  )
        23           Au  tau(  23) = (   0.1250000   0.9381942   0.2041242  )
        24           Au  tau(  24) = (   0.3750000   0.5051815   0.2041242  )
        25           Au  tau(  25) = (   0.3750000   0.9381942   0.2041242  )
        26           Au  tau(  26) = (   0.8750000   0.5051815   0.2041242  )
        27           Au  tau(  27) = (   0.2500000   0.2886752   0.2041242  )
        28           Au  tau(  28) = (   0.2500000   0.7216878   0.2041242  )
        29           Au  tau(  29) = (   1.0000000   0.2886752   0.2041242  )
        30           Au  tau(  30) = (   0.3750000   1.3712069   0.2041242  )
        31           Au  tau(  31) = (   0.6250000   0.9381942   0.2041242  )
        32           Au  tau(  32) = (   0.5000000   0.2886752   0.2041242  )
        33           Au  tau(  33) = (   0.7500000   0.2886752   0.2041242  )
        34           Au  tau(  34) = (   0.1250000   1.3712069   0.2041242  )
        35           Au  tau(  35) = (   0.6250000   1.3712069   0.2041242  )
        36           Au  tau(  36) = (   0.8750000   0.9381942   0.2041242  )
        37           Au  tau(  37) = (   0.8750000   1.3712069   0.2041242  )
        38           Au  tau(  38) = (   0.5000000   0.7216878   0.2041242  )
        39           Au  tau(  39) = (   0.7500000   0.7216878   0.2041242  )
        40           Au  tau(  40) = (   0.7500000   1.1547005   0.2041242  )
        41           Au  tau(  41) = (   0.2500000   1.1547005   0.2041242  )
        42           Au  tau(  42) = (   0.5000000   1.1547005   0.2041242  )
        43           Au  tau(  43) = (   1.0000000   0.7216878   0.2041242  )
        44           Au  tau(  44) = (   0.2500000   1.5877132   0.2041242  )
        45           Au  tau(  45) = (   0.5000000   1.5877132   0.2041242  )
        46           Au  tau(  46) = (   1.0000000   1.1547005   0.2041242  )
        47           Au  tau(  47) = (   0.7500000   1.5877132   0.2041242  )
        48           Au  tau(  48) = (   1.0000000   1.5877132   0.2041242  )
        49           Au  tau(  49) = (   0.2500000   0.1443375   0.4082483  )
        50           Au  tau(  50) = (   0.6250000   0.3608439   0.4082483  )
        51           Au  tau(  51) = (   0.5000000   0.1443375   0.4082483  )
        52           Au  tau(  52) = (   0.7500000   0.1443375   0.4082483  )
        53           Au  tau(  53) = (   0.1250000   0.3608439   0.4082483  )
        54           Au  tau(  54) = (   0.3750000   0.3608439   0.4082483  )
        55           Au  tau(  55) = (   0.2500000   0.5773503   0.4082483  )
        56           Au  tau(  56) = (   0.5000000   0.5773503   0.4082483  )
        57           Au  tau(  57) = (   0.5000000   1.0103630   0.4082483  )
        58           Au  tau(  58) = (   0.5000000   1.4433757   0.4082483  )
        59           Au  tau(  59) = (   0.7500000   0.5773503   0.4082483  )
        60           Au  tau(  60) = (   1.0000000   0.1443375   0.4082483  )
[...]
       274           Au  tau( 274) = (   0.3750000   1.0825318   1.8371173  )
       275           Au  tau( 275) = (   0.6250000   0.6495191   1.8371173  )
       276           Au  tau( 276) = (   0.8750000   0.6495191   1.8371173  )
       277           Au  tau( 277) = (   0.1250000   0.2165064   1.8371173  )
       278           Au  tau( 278) = (   0.1250000   0.6495191   1.8371173  )
       279           Au  tau( 279) = (   0.1250000   1.5155445   1.8371173  )
       280           Au  tau( 280) = (   0.3750000   0.2165064   1.8371173  )
       281           Au  tau( 281) = (   0.3750000   0.6495191   1.8371173  )
       282           Au  tau( 282) = (   0.6250000   0.2165064   1.8371173  )
       283           Au  tau( 283) = (   0.6250000   1.0825318   1.8371173  )
       284           Au  tau( 284) = (   0.8750000   0.2165064   1.8371173  )
       285           Au  tau( 285) = (   0.8750000   1.0825318   1.8371173  )
       286           Au  tau( 286) = (   0.8750000   1.5155445   1.8371173  )
       287           Au  tau( 287) = (   0.3750000   1.5155445   1.8371173  )
       288           Au  tau( 288) = (   0.6250000   1.5155445   1.8371173  )

     number of k points=     6  Marzari-Vanderbilt smearing, width (Ry)=  0.0500
                       cart. coord. in units 2pi/alat
        k(    1) = (   0.0833333   0.0962250   0.0000000), wk =   0.4444444
        k(    2) = (   0.0833333  -0.2886751   0.0000000), wk =   0.2222222
        k(    3) = (   0.2500000   0.0962250   0.0000000), wk =   0.4444444
        k(    4) = (   0.2500000  -0.2886751   0.0000000), wk =   0.2222222
        k(    5) = (   0.4166667   0.0962250   0.0000000), wk =   0.4444444
        k(    6) = (   0.4166667  -0.2886751   0.0000000), wk =   0.2222222

     Initial potential from superposition of free atoms

     starting charge 3164.65577, renormalised to 3168.00000

     negative rho (up, down):  7.682E+00 0.000E+00
     Starting wfcs are 2592 randomized atomic wfcs

     Self-consistent Calculation

     iteration #  1     ecut=    40.00 Ry     beta= 0.70
     Davidson diagonalization with overlap
     ethr =  1.00E-02,  avg # of iterations =  3.0

     Threshold (ethr) on eigenvalues was too large:
     Diagonalizing with lowered threshold

     Davidson diagonalization with overlap
     ethr =  3.34E-04,  avg # of iterations =  3.8

     negative rho (up, down):  7.304E+00 0.000E+00

     total energy              =  -29385.07952725 Ry
     estimated scf accuracy    <      12.62177251 Ry

[...]

     iteration # 14     ecut=    40.00 Ry     beta= 0.70
     Davidson diagonalization with overlap
     c_bands:  1 eigenvalues not converged
     ethr =  3.66E-06,  avg # of iterations = 13.8

[...]

     total energy              =  -29385.42679258 Ry
     estimated scf accuracy    <       0.00000144 Ry

     iteration # 24     ecut=    40.00 Ry     beta= 0.70
     Davidson diagonalization with overlap
     ethr =  4.56E-11,  avg # of iterations =  2.2

[...]

     End of self-consistent calculation

          k = 0.0833 0.0962 0.0000 (220303 PWs)   bands (ev):

    -0.8129  -0.5139  -0.4713  -0.2262  -0.1778   0.0255   0.1020   0.2537
     0.3117   0.4900   0.5491   0.5640   0.5802   0.6015   0.6351   0.7195
     0.7833   0.8245   0.8362   0.8821   0.9223   0.9650   0.9951   1.0079
     1.0167   1.0909   1.1251   1.1388   1.2051   1.2160   1.2464   1.2569
     1.3387   1.3568   1.3854   1.4019   1.4434   1.4637   1.5057   1.5099
[...]
     2.2418   2.2442   2.2477   2.2734   2.2775   2.2807   2.2886   2.2906
     2.3019   2.3027   2.3046   2.3080   2.3086   2.3100   2.3148   2.3180
     2.3229   2.3254   2.3295   2.3338   2.3382   2.3405   2.3439   2.3449
     2.3495   2.3503   2.3580   2.3701   2.3765   2.3808   2.3811   2.3825
     2.3833   2.3916   2.3991   2.4064   2.4081   2.4115   2.4118   2.4123
     2.4166   2.4231   2.4263   2.4265   2.4282   2.4302   2.4365   2.4396
     2.4407   2.4494   2.4502   2.4515   2.4523   2.4563   2.4603   2.4686
     2.4744   2.4759   2.4766   2.4837   2.4838   2.4857   2.4887   2.4953
     2.5109   2.5135   2.5151   2.5245   2.5358   2.5376   2.5380   2.5430
     2.5463   2.5534   2.5556   2.5580   2.5647   2.5681   2.5688   2.5742
     2.5757   2.5801   2.5802   2.5812   2.5881   2.5905   2.5933   2.5945
     2.5982   2.5986   2.5986   2.6022   2.6140   2.6143   2.6170   2.6208
     2.6234   2.6352   2.6416   2.6541   2.6550   2.6591   2.6614   2.6637
     2.6672   2.6688   2.6700   2.6731   2.6805   2.6847   2.6933   2.6942
     2.6980   2.7013   2.7149   2.7166   2.7198   2.7199   2.7238   2.7267
     2.7341   2.7430   2.7451   2.7476   2.7591   2.7601   2.7689   2.7718
     2.7725   2.7757   2.7782   2.7810   2.7855   2.7907   2.7938   2.8062
     2.8066   2.8068   2.8071   2.8124   2.8125   2.8147   2.8193   2.8247
     2.8344   2.8371   2.8490   2.8509   2.8554   2.8555   2.8573   2.8595
     2.8600   2.8609   2.8755   2.8759   2.8986   2.9118   2.9196   2.9209
     2.9229   2.9295   2.9326   2.9373   2.9404   2.9479   2.9504   2.9565
     2.9568   2.9613   2.9794   2.9842   2.9975   3.0086   3.0112   3.0220
     3.0238   3.0439   3.0562   3.0566   3.0593   3.0676   3.0691   3.0695
     3.0727   3.0804   3.0815   3.0828   3.0835   3.0851   3.0934   3.1109
     3.1160   3.1171   3.1200   3.1222   3.1308   3.1332   3.1379   3.1401
     3.1428   3.1430   3.1480   3.1631   3.1674   3.1696   3.1761   3.1802
     3.1811   3.1909   3.1947   3.1965   3.1989   3.1993   3.2022   3.2088
     3.2089   3.2124   3.2140   3.2233   3.2249   3.2283   3.2319   3.2336
     3.2372   3.2453   3.2615   3.2629   3.2674   3.2744   3.2794   3.2817
     3.2842   3.2911   3.2926   3.2935   3.3002   3.3128   3.3166   3.3218
     3.3245   3.3245   3.3253   3.3263   3.3277   3.3292   3.3319   3.3334
     3.3366   3.3440   3.3475   3.3506   3.3540   3.3552   3.3607   3.3607
     3.3695   3.3732   3.3733   3.3758   3.3759   3.3779   3.3792   3.3818
     3.4049   3.4061   3.4067   3.4096   3.4138   3.4166   3.4214   3.4219
     3.4277   3.4347   3.4388   3.4390   3.4423   3.4478   3.4484   3.4496
     3.4594   3.4632   3.4634   3.4643   3.4732   3.4748   3.4757   3.4759
     3.4789   3.4825   3.4860   3.4871   3.4962   3.4974   3.5023   3.5063
     3.5090   3.5121   3.5150   3.5151   3.5187   3.5267   3.5320   3.5334
     3.5360   3.5382   3.5390   3.5437   3.5480   3.5538   3.5580   3.5629
     3.5670   3.5689   3.5709   3.5763   3.5765   3.5801   3.5856   3.5868
     3.5908   3.5920   3.5935   3.5972   3.5983   3.6017   3.6018   3.6019
     3.6076   3.6089   3.6211   3.6211   3.6244   3.6247   3.6252   3.6260
     3.6264   3.6298   3.6326   3.6448   3.6469   3.6480   3.6482   3.6595
     3.6620   3.6791   3.6847   3.6908   3.6924   3.6934   3.6962   3.6978
     3.7044   3.7092   3.7116   3.7151   3.7190   3.7201   3.7210   3.7305
[...]
    12.6452  12.6535  12.7048  12.7301  12.7414  12.7436  12.7651  12.7790
    12.7937  12.8228  12.8467  12.8497  12.8735  12.8749  12.8884  12.8937
    12.9050  12.9368  13.0227  13.0227  13.0525  13.0741  13.0814  13.0937
    13.0962  13.1006  13.1581  13.1680  13.1797  13.2072  13.2155  13.2281
    13.2448  13.2496  13.2602  13.2840  13.2843  13.2956  13.3197  13.3235
    13.3388  13.3792  13.3836  13.4407  13.4464  13.4631  13.4632  13.4640
    13.4689  13.4699  13.4720  13.4917  13.5045  13.5236  13.5279  13.5780
    13.6557  13.6623  13.6762  13.6828  13.6884  13.7255  13.7603  13.7661
    13.8104  13.8207  13.8227  13.8265  13.8360  13.8436  13.8831  13.8874
    13.8909  13.8962  13.9146  13.9336  13.9338  13.9393  13.9526  13.9583
    13.9614  13.9952  13.9996  14.0040  14.0079  14.0302  14.0496  14.0700
    14.0905  14.1017  14.1118  14.1287  14.1451  14.1648  14.1707  14.1717
    14.2010  14.2055  14.2312  14.2435  14.2722  14.2789  14.2824  14.3252
    14.3395  14.3738  14.3745  14.4028  14.4039  14.4104  14.4233  14.4234
    14.4294  14.5062  14.5483  14.5572  14.5575

[...]

          k = 0.4167-0.2887 0.0000 (220176 PWs)   bands (ev):

    -0.4895  -0.4895  -0.2733  -0.2733  -0.1537  -0.1537   0.0569   0.0569
     0.3358   0.3358   0.3412   0.3412   0.5325   0.5325   0.5388   0.5388
     0.6460   0.6460   0.8261   0.8261   0.9069   0.9069   1.0889   1.0889
     1.1032   1.1032   1.2518   1.2518   1.4283   1.4283   1.4453   1.4453
     1.5140   1.5140   1.5163   1.5163   1.5723   1.5723   1.6072   1.6072
     1.6202   1.6202   1.6548   1.6548   1.7084   1.7084   1.7305   1.7305
     1.7332   1.7332   1.7477   1.7477   1.7532   1.7532   1.7534   1.7534
     1.7898   1.7898   1.8179   1.8179   1.8301   1.8301   1.8359   1.8359
     1.8508   1.8508   1.8920   1.8920   1.9078   1.9078   1.9130   1.9130
     1.9173   1.9173   1.9449   1.9449   1.9504   1.9504   1.9601   1.9601
     1.9605   1.9605   1.9789   1.9789   2.0071   2.0071   2.0176   2.0176
     2.0273   2.0273   2.0293   2.0293   2.0369   2.0369   2.0432   2.0432
     2.0715   2.0715   2.0770   2.0770   2.0827   2.0827   2.1040   2.1040
     2.1151   2.1151   2.1292   2.1292   2.1316   2.1316   2.1382   2.1382
     2.1448   2.1448   2.1527   2.1527   2.1893   2.1893   2.1957   2.1957
     2.2042   2.2042   2.2215   2.2215   2.2326   2.2326   2.2403   2.2403
     2.2549   2.2549   2.2722   2.2722   2.2913   2.2913   2.2934   2.2934
     2.3010   2.3010   2.3039   2.3039   2.3164   2.3164   2.3279   2.3279
     2.3474   2.3474   2.3509   2.3509   2.3573   2.3573   2.3573   2.3573
     2.3715   2.3715   2.3868   2.3868   2.3922   2.3922   2.4181   2.4181
     2.4340   2.4340   2.4352   2.4352   2.4375   2.4375   2.4380   2.4380
     2.4432   2.4432   2.4510   2.4510   2.4562   2.4562   2.4609   2.4609
     2.4620   2.4620   2.4652   2.4652   2.4712   2.4712   2.4810   2.4810
     2.4842   2.4842   2.4883   2.4883   2.5106   2.5106   2.5194   2.5194
     2.5224   2.5224   2.5238   2.5238   2.5382   2.5382   2.5407   2.5407
     2.5660   2.5660   2.5685   2.5685   2.5702   2.5702   2.5776   2.5776
     2.5877   2.5877   2.5890   2.5890   2.5991   2.5991   2.6022   2.6022
     2.6042   2.6042   2.6063   2.6063   2.6116   2.6116   2.6252   2.6252
     2.6370   2.6370   2.6463   2.6463   2.6513   2.6513   2.6556   2.6556
     2.6854   2.6854   2.6880   2.6880   2.6882   2.6882   2.7007   2.7007
     2.7051   2.7051   2.7075   2.7075   2.7143   2.7143   2.7507   2.7507
     2.7793   2.7793   2.7847   2.7847   2.7883   2.7883   2.7938   2.7938
     2.7948   2.7948   2.8137   2.8137   2.8161   2.8161   2.8170   2.8170
     2.8212   2.8212   2.8252   2.8252   2.8262   2.8262   2.8306   2.8306
     2.8355   2.8355   2.8465   2.8465   2.8616   2.8616   2.8669   2.8669
     2.8765   2.8765   2.8945   2.8945   2.9015   2.9015   2.9314   2.9314
     2.9346   2.9346   2.9367   2.9367   2.9513   2.9513   2.9851   2.9851
     2.9878   2.9878   2.9982   2.9982   3.0069   3.0069   3.0257   3.0257
     3.0534   3.0534   3.0585   3.0585   3.0791   3.0791   3.0860   3.0860
     3.0896   3.0896   3.1068   3.1068   3.1081   3.1081   3.1083   3.1083
     3.1119   3.1119   3.1253   3.1253   3.1388   3.1388   3.1637   3.1637
     3.1648   3.1648   3.1701   3.1701   3.1793   3.1793   3.1813   3.1813
     3.1956   3.1956   3.2038   3.2038   3.2289   3.2289   3.2319   3.2319
     3.2440   3.2440   3.2608   3.2608   3.2648   3.2648   3.2685   3.2685
     3.2731   3.2731   3.2905   3.2905   3.2935   3.2935   3.3121   3.3121
     3.3154   3.3154   3.3237   3.3237   3.3383   3.3383   3.3392   3.3392
     3.3443   3.3443   3.3451   3.3451   3.3703   3.3703   3.3704   3.3704
     3.3711   3.3711   3.3849   3.3849   3.3872   3.3872   3.3901   3.3901
     3.4124   3.4124   3.4220   3.4220   3.4265   3.4265   3.4276   3.4276
     3.4378   3.4378   3.4384   3.4384   3.4393   3.4393   3.4498   3.4498
     3.4528   3.4528   3.4559   3.4559   3.4610   3.4610   3.4617   3.4617
     3.4670   3.4670   3.4900   3.4900   3.4902   3.4902   3.4950   3.4950
     3.5051   3.5051   3.5057   3.5057   3.5106   3.5106   3.5119   3.5119
     3.5387   3.5387   3.5393   3.5393   3.5479   3.5479   3.5590   3.5590
     3.5596   3.5596   3.5631   3.5631   3.5668   3.5668   3.5836   3.5836
     3.5912   3.5912   3.6049   3.6049   3.6178   3.6178   3.6259   3.6259
     3.6276   3.6276   3.6360   3.6360   3.6485   3.6485   3.6492   3.6492
     3.6587   3.6587   3.6623   3.6623   3.6767   3.6767   3.6833   3.6833
     3.6881   3.6881   3.6890   3.6890   3.6930   3.6930   3.6976   3.6976
     3.7070   3.7070   3.7237   3.7237   3.7277   3.7277   3.7305   3.7305
[...]
    12.4976  12.4976  12.6152  12.6152  12.6161  12.6161  12.6324  12.6324
    12.6410  12.6410  12.8164  12.8164  12.8850  12.8850  12.9059  12.9059
    12.9277  12.9277  12.9942  12.9942  13.0020  13.0020  13.0109  13.0109
    13.0534  13.0534  13.0567  13.0567  13.1153  13.1153  13.1473  13.1473
    13.1589  13.1589  13.1747  13.1747  13.3115  13.3115  13.3807  13.3807
    13.4025  13.4025  13.4296  13.4296  13.4738  13.4738  13.5267  13.5267
    13.5617  13.5617  13.5777  13.5777  13.5951  13.5951  13.6176  13.6176
    13.6317  13.6317  13.6663  13.6663  13.7347  13.7347  13.7721  13.7721
    13.7754  13.7754  13.7889  13.7889  13.8455  13.8455  13.9138  13.9138
    13.9241  13.9241  13.9335  13.9335  13.9663  13.9663  13.9707  13.9707
    14.0726  14.0726  14.1197  14.1197  14.1859  14.1859  14.2088  14.2088
    14.2755  14.2757  14.2858  14.2858  14.2874  14.2874  14.2920  14.2920
    14.2963  14.2963  14.2971  14.2971  14.3065  14.3065  14.3957  14.3964
    14.4467  14.4467  14.4482  14.4482  14.4630  14.4630  14.4937  14.4937
    14.5860  14.5860  14.6431  14.6523  14.6523

     the Fermi energy is     8.2691 ev

!    total energy              =  -29385.42679270 Ry
     estimated scf accuracy    <       0.00000004 Ry
     smearing contrib. (-TS)   =       0.37939155 Ry
     internal energy E=F+TS    =  -29385.80618425 Ry

     The total energy is F=E-TS. E is the sum of the following terms:
     one-electron contribution = -135597.08346073 Ry
     hartree contribution      =   70793.58047417 Ry
     xc contribution           =  -14204.03126624 Ry
     ewald contribution        =   49621.72806854 Ry

     convergence has been achieved in  24 iterations

     negative rho (up, down):  7.835E+00 0.000E+00

     Forces acting on atoms (cartesian axes, Ry/au):

     atom    1 type  1   force =     0.00000000   -0.00165348    0.02673148
     atom    2 type  1   force =    -0.00000212   -0.00165311    0.02672912
     atom    3 type  1   force =     0.00000000   -0.00165493    0.02672898
     atom    4 type  1   force =     0.00000000   -0.00165354    0.02673149
     atom    5 type  1   force =     0.00000212   -0.00165311    0.02672912
     atom    6 type  1   force =    -0.00000216   -0.00165311    0.02672918
     atom    7 type  1   force =     0.00000000   -0.00165470    0.02672906
     atom    8 type  1   force =     0.00000000   -0.00165325    0.02673161
     atom    9 type  1   force =     0.00000216   -0.00165311    0.02672918
     atom   10 type  1   force =    -0.00000209   -0.00165286    0.02672918
     atom   11 type  1   force =     0.00000000   -0.00165460    0.02672891
     atom   12 type  1   force =     0.00000000   -0.00165311    0.02673146
     atom   13 type  1   force =     0.00000209   -0.00165286    0.02672918
     atom   14 type  1   force =    -0.00000205   -0.00165279    0.02672901
     atom   15 type  1   force =     0.00000000   -0.00165459    0.02672902
     atom   16 type  1   force =     0.00000205   -0.00165279    0.02672901
     atom   17 type  1   force =    -0.00000234    0.00335861   -0.01658528
     atom   18 type  1   force =    -0.00000251    0.00335771   -0.01658500
     atom   19 type  1   force =     0.00000251    0.00335771   -0.01658500
     atom   20 type  1   force =    -0.00000232    0.00335851   -0.01658513
     atom   21 type  1   force =     0.00000250    0.00335772   -0.01658487
     atom   22 type  1   force =     0.00000234    0.00335861   -0.01658528
     atom   23 type  1   force =    -0.00000231    0.00335875   -0.01658505
     atom   24 type  1   force =    -0.00000250    0.00335772   -0.01658487
     atom   25 type  1   force =    -0.00000246    0.00335790   -0.01658489
     atom   26 type  1   force =     0.00000232    0.00335851   -0.01658513
     atom   27 type  1   force =    -0.00000203   -0.00160244   -0.00967554
     atom   28 type  1   force =    -0.00000198   -0.00160222   -0.00967550
     atom   29 type  1   force =     0.00000000   -0.00160256   -0.00967409
     atom   30 type  1   force =    -0.00000247    0.00335793   -0.01658501
     atom   31 type  1   force =     0.00000246    0.00335790   -0.01658489
     atom   32 type  1   force =     0.00000000   -0.00160241   -0.00967700
     atom   33 type  1   force =     0.00000203   -0.00160244   -0.00967554
     atom   34 type  1   force =    -0.00000227    0.00335875   -0.01658522
     atom   35 type  1   force =     0.00000247    0.00335793   -0.01658501
     atom   36 type  1   force =     0.00000231    0.00335875   -0.01658505
     atom   37 type  1   force =     0.00000227    0.00335875   -0.01658522
     atom   38 type  1   force =     0.00000000   -0.00160221   -0.00967693
     atom   39 type  1   force =     0.00000198   -0.00160222   -0.00967550
     atom   40 type  1   force =     0.00000199   -0.00160221   -0.00967554
     atom   41 type  1   force =    -0.00000199   -0.00160221   -0.00967554
     atom   42 type  1   force =     0.00000000   -0.00160225   -0.00967706
     atom   43 type  1   force =     0.00000000   -0.00160243   -0.00967389
     atom   44 type  1   force =    -0.00000198   -0.00160230   -0.00967567
     atom   45 type  1   force =     0.00000000   -0.00160233   -0.00967709
     atom   46 type  1   force =     0.00000000   -0.00160234   -0.00967404
     atom   47 type  1   force =     0.00000198   -0.00160230   -0.00967567
     atom   48 type  1   force =     0.00000000   -0.00160240   -0.00967415
     atom   49 type  1   force =    -0.00000216    0.00056190   -0.00388868
     atom   50 type  1   force =     0.00000170   -0.00053433    0.00452926
     atom   51 type  1   force =     0.00000000    0.00056153   -0.00388897
     atom   52 type  1   force =     0.00000216    0.00056190   -0.00388868
     atom   53 type  1   force =    -0.00000186   -0.00053453    0.00453036
     atom   54 type  1   force =    -0.00000170   -0.00053433    0.00452926
     atom   55 type  1   force =    -0.00000216    0.00056187   -0.00388857
     atom   56 type  1   force =     0.00000000    0.00056150   -0.00388884
     atom   57 type  1   force =     0.00000000    0.00056156   -0.00388897
     atom   58 type  1   force =     0.00000000    0.00056148   -0.00388904
     atom   59 type  1   force =     0.00000216    0.00056187   -0.00388857
     atom   60 type  1   force =     0.00000000    0.00056213   -0.00388697
[...]
     atom  274 type  1   force =     0.00000088    0.00164906   -0.02671870
     atom  275 type  1   force =    -0.00000082    0.00164908   -0.02671893
     atom  276 type  1   force =     0.00000048    0.00165155   -0.02671557
     atom  277 type  1   force =    -0.00000036    0.00165110   -0.02671556
     atom  278 type  1   force =    -0.00000048    0.00165155   -0.02671557
     atom  279 type  1   force =    -0.00000033    0.00165104   -0.02671536
     atom  280 type  1   force =     0.00000101    0.00164884   -0.02671892
     atom  281 type  1   force =     0.00000082    0.00164908   -0.02671893
     atom  282 type  1   force =    -0.00000101    0.00164884   -0.02671892
     atom  283 type  1   force =    -0.00000088    0.00164906   -0.02671870
     atom  284 type  1   force =     0.00000036    0.00165110   -0.02671556
     atom  285 type  1   force =     0.00000044    0.00165139   -0.02671535
     atom  286 type  1   force =     0.00000033    0.00165104   -0.02671536
     atom  287 type  1   force =     0.00000085    0.00164870   -0.02671873
     atom  288 type  1   force =    -0.00000085    0.00164870   -0.02671873

     Total force =     0.190765     Total SCF correction =     0.000766

     General routines

     Parallel routines

   This run was terminated on:  22:58:53  22Sep2021

   JOB DONE.