     Program PWSCF v.6.6 starts on  8Sep2021 at  5:17: 0

     K-points division:     npool     =       2
     R & G space division:  proc/nbgrp/npool/nimage =       6
     Fft bands division:     nmany     =       1
     Reading input from ../inputs/input_ausurf_18

     Current dimensions of program PWSCF are:
     Max number of different atomic species (ntypx) = 10
     Max number of k-points (npk) =  40000
     Max angular momentum in pseudopotentials (lmaxx) =  3

     Subspace diagonalization in iterative solution of the eigenvalue problem:
     one sub-group per band group will be used

     Title:
      Ausurf

     bravais-lattice index     =            8
     lattice parameter (alat)  =       5.5747  a.u.
     unit-cell volume          =    3222.2468 (a.u.)^3
     number of atoms/cell      =           18
     number of atomic types    =            1
     number of electrons       =       198.00
     number of Kohn-Sham states=          119
     kinetic-energy cutoff     =      40.0000  Ry
     charge density cutoff     =     350.0000  Ry
     convergence threshold     =      1.0E-06
     mixing beta               =       0.7000
     number of iterations used =            8  TF        mixing
     Exchange-correlation=  SLA  PW   PBE  PBE
                           (   1   4   3   4   0   0   0)

     celldm(1)=   5.574692  celldm(2)=   1.732051  celldm(3)=  10.738300
     celldm(4)=   0.000000  celldm(5)=   0.000000  celldm(6)=   0.000000

     crystal axes: (cart. coord. in units of alat)
               a(1) = (   1.000000   0.000000   0.000000 )
               a(2) = (   0.000000   1.732051   0.000000 )
               a(3) = (   0.000000   0.000000  10.738300 )

     reciprocal axes: (cart. coord. in units 2 pi/alat)
               b(1) = (  1.000000  0.000000  0.000000 )
               b(2) = (  0.000000  0.577350  0.000000 )
               b(3) = (  0.000000  0.000000  0.093125 )

     PseudoPot. # 1 for Au read from file:
     /marconi/home/userexternal/czeni000/dft_src/pseudo/Au.pbe-nd-van.UPF
     MD5 check sum: deb5c07af10777505a79e28f5b4b4115
     Pseudo is Ultrasoft + core correction, Zval = 11.0
     Generated by new atomic code, or converted to UPF format
     Using radial grid of  985 points,  3 beta functions with:
                l(1) =   1
                l(2) =   2
                l(3) =   2
     Q(r) pseudized with  8 coefficients,  rinner =    1.100   1.100   1.100
                                                       1.100   1.100

     atomic species   valence    mass     pseudopotential
        Au            11.00   196.96000     Au( 1.00)

      2 Sym. Ops. (no inversion) found

   Cartesian axes

     site n.     atom                  positions (alat units)
         1           Au  tau(   1) = (   0.0000000   0.0000000   0.0000000  )
         2           Au  tau(   2) = (   0.5000000   0.2886753   0.8164966  )
         3           Au  tau(   3) = (   1.0000000   1.1547007   0.8164966  )
         4           Au  tau(   4) = (   1.0000000   0.5773502   1.6329932  )
         5           Au  tau(   5) = (   0.5000000   1.4433756   1.6329932  )
         6           Au  tau(   6) = (   0.0000000   0.0000000   2.4494898  )
         7           Au  tau(   7) = (   0.5000000   0.8660254   2.4494898  )
         8           Au  tau(   8) = (   0.5000000   0.2886753   3.2659864  )
         9           Au  tau(   9) = (   1.0000000   1.1547007   3.2659864  )
        10           Au  tau(  10) = (   1.0000000   0.5773502   4.0824831  )
        11           Au  tau(  11) = (   0.5000000   1.4433756   4.0824831  )
        12           Au  tau(  12) = (   0.0000000   0.0000000   4.8989793  )
        13           Au  tau(  13) = (   0.5000000   0.8660254   4.8989793  )
        14           Au  tau(  14) = (   0.5000000   0.2886753   5.7154759  )
        15           Au  tau(  15) = (   1.0000000   1.1547007   5.7154759  )
        16           Au  tau(  16) = (   1.0000000   0.5773502   6.5319725  )
        17           Au  tau(  17) = (   0.5000000   1.4433756   6.5319725  )
        18           Au  tau(  18) = (   0.5000000   0.8660254   7.3484692  )

     number of k points=    48  Marzari-Vanderbilt smearing, width (Ry)=  0.0500
                       cart. coord. in units 2pi/alat
        k(    1) = (   0.0312500   0.0240563   0.0000000), wk =   0.0416667
        k(    2) = (   0.0312500   0.0721688   0.0000000), wk =   0.0416667
        k(    3) = (   0.0312500   0.1202813   0.0000000), wk =   0.0416667
        k(    4) = (   0.0312500   0.1683938   0.0000000), wk =   0.0416667
        k(    5) = (   0.0312500   0.2165064   0.0000000), wk =   0.0416667
        k(    6) = (   0.0312500   0.2646189   0.0000000), wk =   0.0416667
        k(    7) = (   0.0937500   0.0240563   0.0000000), wk =   0.0416667
        k(    8) = (   0.0937500   0.0721688   0.0000000), wk =   0.0416667
        k(    9) = (   0.0937500   0.1202813   0.0000000), wk =   0.0416667
        k(   10) = (   0.0937500   0.1683938   0.0000000), wk =   0.0416667
        k(   11) = (   0.0937500   0.2165064   0.0000000), wk =   0.0416667
        k(   12) = (   0.0937500   0.2646189   0.0000000), wk =   0.0416667
        k(   13) = (   0.1562500   0.0240563   0.0000000), wk =   0.0416667
        k(   14) = (   0.1562500   0.0721688   0.0000000), wk =   0.0416667
        k(   15) = (   0.1562500   0.1202813   0.0000000), wk =   0.0416667
        k(   16) = (   0.1562500   0.1683938   0.0000000), wk =   0.0416667
        k(   17) = (   0.1562500   0.2165064   0.0000000), wk =   0.0416667
        k(   18) = (   0.1562500   0.2646189   0.0000000), wk =   0.0416667
        k(   19) = (   0.2187500   0.0240563   0.0000000), wk =   0.0416667
        k(   20) = (   0.2187500   0.0721688   0.0000000), wk =   0.0416667
        k(   21) = (   0.2187500   0.1202813   0.0000000), wk =   0.0416667
        k(   22) = (   0.2187500   0.1683938   0.0000000), wk =   0.0416667
        k(   23) = (   0.2187500   0.2165064   0.0000000), wk =   0.0416667
        k(   24) = (   0.2187500   0.2646189   0.0000000), wk =   0.0416667
        k(   25) = (   0.2812500   0.0240563   0.0000000), wk =   0.0416667
        k(   26) = (   0.2812500   0.0721688   0.0000000), wk =   0.0416667
        k(   27) = (   0.2812500   0.1202813   0.0000000), wk =   0.0416667
        k(   28) = (   0.2812500   0.1683938   0.0000000), wk =   0.0416667
        k(   29) = (   0.2812500   0.2165064   0.0000000), wk =   0.0416667
        k(   30) = (   0.2812500   0.2646189   0.0000000), wk =   0.0416667
        k(   31) = (   0.3437500   0.0240563   0.0000000), wk =   0.0416667
        k(   32) = (   0.3437500   0.0721688   0.0000000), wk =   0.0416667
        k(   33) = (   0.3437500   0.1202813   0.0000000), wk =   0.0416667
        k(   34) = (   0.3437500   0.1683938   0.0000000), wk =   0.0416667
        k(   35) = (   0.3437500   0.2165064   0.0000000), wk =   0.0416667
        k(   36) = (   0.3437500   0.2646189   0.0000000), wk =   0.0416667
        k(   37) = (   0.4062500   0.0240563   0.0000000), wk =   0.0416667
        k(   38) = (   0.4062500   0.0721688   0.0000000), wk =   0.0416667
        k(   39) = (   0.4062500   0.1202813   0.0000000), wk =   0.0416667
        k(   40) = (   0.4062500   0.1683938   0.0000000), wk =   0.0416667
        k(   41) = (   0.4062500   0.2165064   0.0000000), wk =   0.0416667
        k(   42) = (   0.4062500   0.2646189   0.0000000), wk =   0.0416667
        k(   43) = (   0.4687500   0.0240563   0.0000000), wk =   0.0416667
        k(   44) = (   0.4687500   0.0721688   0.0000000), wk =   0.0416667
        k(   45) = (   0.4687500   0.1202813   0.0000000), wk =   0.0416667
        k(   46) = (   0.4687500   0.1683938   0.0000000), wk =   0.0416667
        k(   47) = (   0.4687500   0.2165064   0.0000000), wk =   0.0416667
        k(   48) = (   0.4687500   0.2646189   0.0000000), wk =   0.0416667

     Initial potential from superposition of free atoms

     starting charge  197.79099, renormalised to  198.00000

     negative rho (up, down):  4.791E-01 0.000E+00
     Starting wfcs are  162 randomized atomic wfcs

     Self-consistent Calculation

     iteration #  1     ecut=    40.00 Ry     beta= 0.70
     Davidson diagonalization with overlap
     ethr =  1.00E-02,  avg # of iterations =  2.5

     Threshold (ethr) on eigenvalues was too large:
     Diagonalizing with lowered threshold

     Davidson diagonalization with overlap
     ethr =  3.36E-04,  avg # of iterations =  2.4

     negative rho (up, down):  4.551E-01 0.000E+00

     total energy              =   -1836.56879168 Ry
     estimated scf accuracy    <       0.78628040 Ry

[...]

     total energy              =   -1836.58919683 Ry
     estimated scf accuracy    <       0.00000107 Ry

     iteration # 20     ecut=    40.00 Ry     beta= 0.70
     Davidson diagonalization with overlap
     ethr =  5.38E-10,  avg # of iterations =  3.3

[...]

     End of self-consistent calculation

          k = 0.0312 0.0241 0.0000 ( 13817 PWs)   bands (ev):

    -0.8010  -0.4592   0.0374   0.6131   1.1367   1.4545   1.5755   1.5793
     1.6243   1.8590   1.8743   2.0435   2.1316   2.1746   2.2404   2.3284
     2.4867   2.4946   2.6717   3.0595   3.2684   3.3524   3.5642   3.7280
     3.7577   3.7649   3.8466   3.8892   3.8931   3.9112   3.9266   3.9331
     3.9602   3.9677   3.9827   4.0195   4.0412   4.0740   4.0857   4.0980
     4.1257   4.1711   4.1718   4.1775   4.2872   4.3103   4.3288   4.3545
     4.3706   4.3846   4.4981   4.5285   4.7030   4.7158   4.9059   5.0365
     5.1388   5.1744   5.1893   5.2077   5.2695   5.2768   5.2981   5.3375
     5.3425   5.4128   5.5005   5.5197   5.6307   5.6558   5.6746   5.7696
     5.8062   5.8531   5.9565   5.9947   6.0229   6.0638   6.1347   6.1968
     6.2212   6.2530   6.2912   6.3354   6.3408   6.3738   6.4059   6.4247
     6.4519   6.4872   6.5364   6.5717   6.5929   6.6086   6.6206   6.6376
     6.7423   6.7557   7.1432   7.9031   8.3911   8.7351   8.9553   9.0743
     9.3104   9.3205   9.6873   9.9246  10.0169  11.1479  11.3466  11.4779
    11.8940  12.0534  12.6322  12.7858  13.5056  13.8080  13.9638

[...]

          k = 0.4688 0.2646 0.0000 ( 13756 PWs)   bands (ev):

     1.6019   1.6259   1.8493   1.8529   1.8613   1.8751   2.0325   2.0480
     2.1270   2.1277   2.1501   2.1786   2.2280   2.2466   2.3191   2.3239
     2.4186   2.4383   2.4936   2.5032   2.6692   2.6928   3.0691   3.0900
     3.4473   3.4621   3.6467   3.6633   3.7780   3.7978   3.8674   3.8746
     3.9502   3.9587   4.1040   4.1090   4.1831   4.1908   4.4173   4.4420
     4.4677   4.4957   4.5328   4.5378   4.8765   4.9024   4.9513   4.9715
     5.0063   5.0324   5.2562   5.2656   5.3428   5.3778   5.5074   5.5597
     5.7380   5.7491   5.8382   5.8552   5.9732   6.0051   6.1604   6.1678
     6.1917   6.2352   6.2495   6.2629   6.2844   6.3040   6.3356   6.3391
     6.3637   6.3688   6.3840   6.4207   6.4247   6.4453   6.4506   6.4635
     6.5061   6.5086   6.5540   6.5666   6.6390   6.6641   6.6917   6.6933
     6.8181   6.8450   7.6071   8.0149   8.0949   8.4063   8.5046   8.6120
     8.8630   9.0155   9.0925   9.2882   9.5383   9.6068   9.7691   9.8550
    10.0814  10.2593  10.8437  10.8637  11.1069  11.1660  11.2567  11.3471
    11.8405  11.8894  12.5211  12.5502  12.6247  12.8435  13.4047

     the Fermi energy is     8.2692 ev

!    total energy              =   -1836.58919871 Ry
     estimated scf accuracy    <       0.00000056 Ry
     smearing contrib. (-TS)   =       0.02396280 Ry
     internal energy E=F+TS    =   -1836.61316150 Ry

     The total energy is F=E-TS. E is the sum of the following terms:
     one-electron contribution =   -8474.87347895 Ry
     hartree contribution      =    4424.65429702 Ry
     xc contribution           =    -887.75198497 Ry
     ewald contribution        =    3101.35800540 Ry

     convergence has been achieved in  20 iterations

     negative rho (up, down):  4.893E-01 0.000E+00

     Forces acting on atoms (cartesian axes, Ry/au):

     atom    1 type  1   force =     0.00000000   -0.00165863    0.02666050
     atom    2 type  1   force =     0.00000000    0.00338480   -0.01680635
     atom    3 type  1   force =     0.00000000   -0.00163129   -0.00992175
     atom    4 type  1   force =     0.00000000    0.00056405   -0.00408568
     atom    5 type  1   force =     0.00000000   -0.00053623    0.00436029
     atom    6 type  1   force =     0.00000000    0.00029286   -0.00096325
     atom    7 type  1   force =     0.00000000   -0.00044479   -0.00072711
     atom    8 type  1   force =     0.00000000   -0.00018791    0.00037049
     atom    9 type  1   force =     0.00000000    0.00019331   -0.00060239
     atom   10 type  1   force =     0.00000000    0.00018974   -0.00037316
     atom   11 type  1   force =     0.00000000   -0.00019241    0.00060104
     atom   12 type  1   force =     0.00000000    0.00044505    0.00073168
     atom   13 type  1   force =     0.00000000   -0.00029270    0.00096569
     atom   14 type  1   force =     0.00000000   -0.00056239    0.00407754
     atom   15 type  1   force =     0.00000000    0.00053745   -0.00436575
     atom   16 type  1   force =     0.00000000   -0.00338285    0.01680385
     atom   17 type  1   force =     0.00000000    0.00162918    0.00991952
     atom   18 type  1   force =     0.00000000    0.00165276   -0.02664516

     Total force =     0.047889     Total SCF correction =     0.004031

     General routines

     Parallel routines

   This run was terminated on:   5:19:33   8Sep2021

   JOB DONE.