     Program PWSCF v.6.6 starts on 24Sep2021 at 23: 2: 2

     R & G space division:  proc/nbgrp/npool/nimage =      48
     Fft bands division:     nmany     =       1
     Reading input from ../inputs/input_ausurf_432

     Current dimensions of program PWSCF are:
     Max number of different atomic species (ntypx) = 10
     Max number of k-points (npk) =  40000
     Max angular momentum in pseudopotentials (lmaxx) =  3

     Subspace diagonalization in iterative solution of the eigenvalue problem:
     one sub-group per band group will be used

     Found symmetry operation: I + (  0.1667  0.0000  0.0000)
     This is a supercell, fractional translations are disabled

     Title:
      Ausurf

     bravais-lattice index     =            8
     lattice parameter (alat)  =      33.4482  a.u.
     unit-cell volume          =   77333.9228 (a.u.)^3
     number of atoms/cell      =          432
     number of atomic types    =            1
     number of electrons       =      4752.00
     number of Kohn-Sham states=         2851
     kinetic-energy cutoff     =      40.0000  Ry
     charge density cutoff     =     350.0000  Ry
     convergence threshold     =      1.0E-06
     mixing beta               =       0.7000
     number of iterations used =            8  TF        mixing
     Exchange-correlation=  SLA  PW   PBE  PBE
                           (   1   4   3   4   0   0   0)

     celldm(1)=  33.448152  celldm(2)=   1.154701  celldm(3)=   1.789717
     celldm(4)=   0.000000  celldm(5)=   0.000000  celldm(6)=   0.000000

     crystal axes: (cart. coord. in units of alat)
               a(1) = (   1.000000   0.000000   0.000000 )
               a(2) = (   0.000000   1.154701   0.000000 )
               a(3) = (   0.000000   0.000000   1.789717 )

     reciprocal axes: (cart. coord. in units 2 pi/alat)
               b(1) = (  1.000000  0.000000  0.000000 )
               b(2) = (  0.000000  0.866025  0.000000 )
               b(3) = (  0.000000  0.000000  0.558748 )

     PseudoPot. # 1 for Au read from file:
     /marconi/home/userexternal/czeni000/dft_src/pseudo/Au.pbe-nd-van.UPF
     MD5 check sum: deb5c07af10777505a79e28f5b4b4115
     Pseudo is Ultrasoft + core correction, Zval = 11.0
     Generated by new atomic code, or converted to UPF format
     Using radial grid of  985 points,  3 beta functions with:
                l(1) =   1
                l(2) =   2
                l(3) =   2
     Q(r) pseudized with  8 coefficients,  rinner =    1.100   1.100   1.100
                                                       1.100   1.100

     atomic species   valence    mass     pseudopotential
        Au            11.00   196.96000     Au( 1.00)

      2 Sym. Ops. (no inversion) found

   Cartesian axes

     site n.     atom                  positions (alat units)
         1           Au  tau(   1) = (   0.0000000   0.0000000   0.0000000  )
         2           Au  tau(   2) = (   0.1666667   0.0000000   0.0000000  )
         3           Au  tau(   3) = (   0.3333333   0.0000000   0.0000000  )
         4           Au  tau(   4) = (   0.0000000   0.2886751   0.0000000  )
         5           Au  tau(   5) = (   0.5000000   0.0000000   0.0000000  )
         6           Au  tau(   6) = (   0.1666667   0.2886751   0.0000000  )
         7           Au  tau(   7) = (   0.6666667   0.0000000   0.0000000  )
         8           Au  tau(   8) = (   0.3333333   0.2886751   0.0000000  )
         9           Au  tau(   9) = (   0.8333333   0.0000000   0.0000000  )
        10           Au  tau(  10) = (   0.0000000   0.5773503   0.0000000  )
        11           Au  tau(  11) = (   0.5000000   0.2886751   0.0000000  )
        12           Au  tau(  12) = (   0.1666667   0.5773503   0.0000000  )
        13           Au  tau(  13) = (   0.6666667   0.2886751   0.0000000  )
        14           Au  tau(  14) = (   0.3333333   0.5773503   0.0000000  )
        15           Au  tau(  15) = (   0.8333333   0.2886751   0.0000000  )
        16           Au  tau(  16) = (   0.0000000   0.8660254   0.0000000  )
        17           Au  tau(  17) = (   0.5000000   0.5773503   0.0000000  )
        18           Au  tau(  18) = (   0.1666667   0.8660254   0.0000000  )
        19           Au  tau(  19) = (   0.6666667   0.5773503   0.0000000  )
        20           Au  tau(  20) = (   0.3333333   0.8660254   0.0000000  )
        21           Au  tau(  21) = (   0.8333333   0.5773503   0.0000000  )
        22           Au  tau(  22) = (   0.5000000   0.8660254   0.0000000  )
        23           Au  tau(  23) = (   0.6666667   0.8660254   0.0000000  )
        24           Au  tau(  24) = (   0.8333333   0.8660254   0.0000000  )
        25           Au  tau(  25) = (   0.0833333   0.0481125   0.1360828  )
        26           Au  tau(  26) = (   0.2500000   0.0481125   0.1360828  )
        27           Au  tau(  27) = (   0.4166667   0.0481125   0.1360828  )
        28           Au  tau(  28) = (   0.0833333   0.3367877   0.1360828  )
        29           Au  tau(  29) = (   0.4166667   0.3367877   0.1360828  )
        30           Au  tau(  30) = (   0.5833333   0.0481125   0.1360828  )
        31           Au  tau(  31) = (   0.9166667   0.0481125   0.1360828  )
        32           Au  tau(  32) = (   0.0833333   0.6254628   0.1360828  )
        33           Au  tau(  33) = (   0.2500000   0.3367877   0.1360828  )
        34           Au  tau(  34) = (   0.2500000   0.6254628   0.1360828  )
        35           Au  tau(  35) = (   0.5833333   0.3367877   0.1360828  )
        36           Au  tau(  36) = (   0.7500000   0.0481125   0.1360828  )
        37           Au  tau(  37) = (   0.7500000   0.3367877   0.1360828  )
        38           Au  tau(  38) = (   0.1666667   0.1924501   0.1360828  )
        39           Au  tau(  39) = (   0.1666667   0.4811252   0.1360828  )
        40           Au  tau(  40) = (   0.6666667   0.1924501   0.1360828  )
        41           Au  tau(  41) = (   0.2500000   0.9141379   0.1360828  )
        42           Au  tau(  42) = (   0.4166667   0.6254628   0.1360828  )
        43           Au  tau(  43) = (   0.7500000   0.6254628   0.1360828  )
        44           Au  tau(  44) = (   0.9166667   0.3367877   0.1360828  )
        45           Au  tau(  45) = (   0.3333333   0.1924501   0.1360828  )
        46           Au  tau(  46) = (   0.5000000   0.1924501   0.1360828  )
        47           Au  tau(  47) = (   0.0833333   0.9141379   0.1360828  )
        48           Au  tau(  48) = (   0.4166667   0.9141379   0.1360828  )
        49           Au  tau(  49) = (   0.5833333   0.6254628   0.1360828  )
        50           Au  tau(  50) = (   0.5833333   0.9141379   0.1360828  )
        51           Au  tau(  51) = (   0.9166667   0.6254628   0.1360828  )
        52           Au  tau(  52) = (   0.3333333   0.4811252   0.1360828  )
        53           Au  tau(  53) = (   0.5000000   0.4811252   0.1360828  )
        54           Au  tau(  54) = (   0.5000000   0.7698003   0.1360828  )
        55           Au  tau(  55) = (   0.8333333   0.1924501   0.1360828  )
        56           Au  tau(  56) = (   1.0000000   0.1924501   0.1360828  )
        57           Au  tau(  57) = (   1.0000000   0.4811252   0.1360828  )
        58           Au  tau(  58) = (   0.7500000   0.9141379   0.1360828  )
        59           Au  tau(  59) = (   0.1666667   0.7698003   0.1360828  )
        60           Au  tau(  60) = (   0.3333333   0.7698003   0.1360828  )
[...]
       418           Au  tau( 418) = (   0.2500000   0.1443376   1.2247449  )
       419           Au  tau( 419) = (   0.2500000   0.4330127   1.2247449  )
       420           Au  tau( 420) = (   0.4166667   0.1443376   1.2247449  )
       421           Au  tau( 421) = (   0.4166667   0.7216879   1.2247449  )
       422           Au  tau( 422) = (   0.5833333   0.1443376   1.2247449  )
       423           Au  tau( 423) = (   0.5833333   0.7216879   1.2247449  )
       424           Au  tau( 424) = (   0.7500000   0.1443376   1.2247449  )
       425           Au  tau( 425) = (   0.9166667   0.4330127   1.2247449  )
       426           Au  tau( 426) = (   0.5833333   1.0103630   1.2247449  )
       427           Au  tau( 427) = (   0.7500000   1.0103630   1.2247449  )
       428           Au  tau( 428) = (   0.9166667   1.0103630   1.2247449  )
       429           Au  tau( 429) = (   0.2500000   1.0103630   1.2247449  )
       430           Au  tau( 430) = (   0.4166667   1.0103630   1.2247449  )
       431           Au  tau( 431) = (   0.7500000   0.7216879   1.2247449  )
       432           Au  tau( 432) = (   0.9166667   0.7216879   1.2247449  )

     number of k points=     4  Marzari-Vanderbilt smearing, width (Ry)=  0.0500
                       cart. coord. in units 2pi/alat
        k(    1) = (   0.1250000   0.1082532   0.0000000), wk =   0.5000000
        k(    2) = (   0.1250000   0.3247595   0.0000000), wk =   0.5000000
        k(    3) = (   0.3750000   0.1082532   0.0000000), wk =   0.5000000
        k(    4) = (   0.3750000   0.3247595   0.0000000), wk =   0.5000000

     Initial potential from superposition of free atoms

     starting charge 4746.98365, renormalised to 4752.00000

     negative rho (up, down):  1.152E+01 0.000E+00
     Starting wfcs are 3888 randomized atomic wfcs

     Self-consistent Calculation

     iteration #  1     ecut=    40.00 Ry     beta= 0.70
     Davidson diagonalization with overlap
     ethr =  1.00E-02,  avg # of iterations =  3.0

     Threshold (ethr) on eigenvalues was too large:
     Diagonalizing with lowered threshold

     Davidson diagonalization with overlap
     ethr =  3.34E-04,  avg # of iterations =  3.2

     negative rho (up, down):  1.095E+01 0.000E+00

     total energy              =  -44077.60694853 Ry
     estimated scf accuracy    <      18.95524452 Ry

[...]

     iteration #  5     ecut=    40.00 Ry     beta= 0.70
     Davidson diagonalization with overlap
     c_bands:  1 eigenvalues not converged
     ethr =  5.10E-05,  avg # of iterations = 19.2

[...]

     iteration # 22     ecut=    40.00 Ry     beta= 0.70
     Davidson diagonalization with overlap
     c_bands:  1 eigenvalues not converged
     ethr =  1.98E-08,  avg # of iterations = 10.0

[...]

     total energy              =  -44078.14019378 Ry
     estimated scf accuracy    <       0.00001798 Ry

     iteration # 27     ecut=    40.00 Ry     beta= 0.70
     Davidson diagonalization with overlap
     ethr =  1.59E-10,  avg # of iterations =  2.8

[...]

     End of self-consistent calculation

          k = 0.1250 0.1083 0.0000 (330335 PWs)   bands (ev):

    -0.8184  -0.4825  -0.4767  -0.3731  -0.2666  -0.1472  -0.0895  -0.0570
    -0.0399   0.0202   0.0629   0.1474   0.2078   0.2353   0.2658   0.3414
     0.4004   0.4463   0.4619   0.5184   0.5430   0.5962   0.6023   0.7004
     0.7097   0.7367   0.8849   0.9108   0.9154   0.9200   0.9699   0.9867
     1.0154   1.0411   1.1038   1.1199   1.1347   1.1664   1.1717   1.1993
     1.2426   1.2498   1.2682   1.2862   1.2895   1.2927   1.3021   1.4026
     1.4298   1.4320   1.4385   1.4417   1.4559   1.4564   1.4593   1.4812
[...]
     1.9475   1.9558   1.9560   1.9571   1.9675   1.9680   1.9803   1.9823
     1.9852   1.9917   1.9988   2.0115   2.0131   2.0161   2.0175   2.0213
     2.0266   2.0280   2.0324   2.0358   2.0414   2.0443   2.0453   2.0456
     2.0516   2.0615   2.0655   2.0681   2.0761   2.0817   2.0937   2.0978
     2.1008   2.1024   2.1189   2.1195   2.1200   2.1232   2.1232   2.1237
     2.1248   2.1253   2.1277   2.1293   2.1377   2.1409   2.1443   2.1504
     2.1509   2.1522   2.1555   2.1572   2.1587   2.1606   2.1642   2.1654
     2.1662   2.1764   2.1788   2.1824   2.1828   2.1958   2.2033   2.2043
     2.2102   2.2120   2.2130   2.2159   2.2188   2.2193   2.2193   2.2197
     2.2233   2.2266   2.2276   2.2326   2.2379   2.2413   2.2435   2.2449
     2.2479   2.2509   2.2580   2.2600   2.2613   2.2635   2.2686   2.2764
     2.2905   2.2920   2.2984   2.2991   2.2999   2.3024   2.3072   2.3081
     2.3086   2.3098   2.3108   2.3115   2.3124   2.3157   2.3201   2.3210
     2.3250   2.3256   2.3263   2.3283   2.3284   2.3335   2.3345   2.3436
     2.3467   2.3514   2.3534   2.3554   2.3598   2.3634   2.3670   2.3722
     2.3728   2.3756   2.3860   2.3866   2.3883   2.3898   2.3906   2.3925
     2.3942   2.3992   2.4024   2.4125   2.4128   2.4130   2.4158   2.4161
     2.4259   2.4266   2.4309   2.4341   2.4419   2.4434   2.4443   2.4463
     2.4469   2.4484   2.4497   2.4500   2.4521   2.4522   2.4560   2.4606
     2.4652   2.4729   2.4740   2.4752   2.4766   2.4823   2.4851   2.4852
     2.4856   2.4890   2.4913   2.4953   2.4983   2.5038   2.5100   2.5116
     2.5119   2.5124   2.5185   2.5193   2.5200   2.5232   2.5233   2.5249
     2.5343   2.5369   2.5380   2.5415   2.5441   2.5459   2.5472   2.5514
     2.5541   2.5570   2.5723   2.5759   2.5781   2.5781   2.5784   2.5814
     2.5820   2.5823   2.5848   2.5851   2.5873   2.5937   2.5948   2.5952
     2.5963   2.5969   2.6019   2.6044   2.6059   2.6117   2.6177   2.6264
     2.6266   2.6285   2.6327   2.6330   2.6356   2.6362   2.6378   2.6393
     2.6445   2.6523   2.6613   2.6643   2.6654   2.6669   2.6742   2.6754
     2.6760   2.6802   2.6817   2.6827   2.6894   2.6904   2.6916   2.6959
     2.6970   2.7012   2.7024   2.7072   2.7140   2.7151   2.7152   2.7207
     2.7230   2.7255   2.7258   2.7268   2.7272   2.7299   2.7348   2.7368
     2.7400   2.7411   2.7412   2.7442   2.7444   2.7525   2.7543   2.7587
     2.7646   2.7673   2.7695   2.7700   2.7800   2.7802   2.7821   2.7829
     2.7830   2.7834   2.7867   2.7885   2.7888   2.7892   2.7953   2.7990
     2.8000   2.8038   2.8114   2.8137   2.8150   2.8169   2.8175   2.8187
     2.8213   2.8273   2.8287   2.8376   2.8402   2.8473   2.8481   2.8507
     2.8519   2.8536   2.8538   2.8598   2.8609   2.8611   2.8612   2.8628
     2.8699   2.8754   2.8828   2.8940   2.8960   2.8971   2.8989   2.9020
     2.9023   2.9041   2.9043   2.9057   2.9091   2.9142   2.9145   2.9153
     2.9250   2.9272   2.9306   2.9314   2.9332   2.9341   2.9357   2.9361
     2.9447   2.9503   2.9633   2.9647   2.9658   2.9662   2.9685   2.9722
     2.9727   2.9766   2.9776   2.9985   3.0081   3.0099   3.0124   3.0132
     3.0163   3.0279   3.0282   3.0360   3.0378   3.0379   3.0392   3.0408
     3.0424   3.0545   3.0548   3.0622   3.0645   3.0684   3.0721   3.0799
     3.0807   3.0823   3.0852   3.0853   3.0921   3.0974   3.0977   3.0978
     3.0988   3.0992   3.1051   3.1092   3.1140   3.1179   3.1238   3.1262
[...]
    13.3824  13.3860  13.3905  13.4017  13.4136  13.4186  13.4280  13.4303
    13.4326  13.4657  13.4717  13.4739  13.5036  13.5064  13.5111  13.5341
    13.5499  13.5700  13.5752  13.5874  13.5919  13.6079  13.6097  13.6201
    13.6204  13.6515  13.6602  13.6740  13.6855  13.6857  13.6956  13.7062
    13.7163  13.7210  13.7293  13.7549  13.7640  13.7697  13.7713  13.7715
    13.7757  13.8006  13.8184  13.8185  13.8195  13.8247  13.8291  13.8303
    13.8326  13.8370  13.8621  13.8960  13.9034  13.9040  13.9133  13.9153
    13.9265  13.9380  13.9579  13.9731  13.9907  13.9954  13.9967  14.0051
    14.0243  14.0308  14.0311  14.0544  14.0577  14.0733  14.0855  14.1160
    14.1180  14.1198  14.1505  14.1516  14.1523  14.1569  14.1588  14.1629
    14.1634  14.1650  14.1875  14.1921  14.2051  14.2511  14.2532  14.2828
    14.2911  14.2961  14.3036  14.3121  14.3287  14.3300  14.3471  14.3720
    14.3824  14.3840  14.4017  14.4036  14.4065  14.4103  14.4234  14.4263
    14.4579  14.4595  14.4622  14.5044  14.5059  14.5122  14.5785  14.5843
    14.6061  14.6328  14.6484

[...]

          k = 0.3750 0.3248 0.0000 (330443 PWs)   bands (ev):

    -0.6862  -0.5744  -0.5375  -0.4278  -0.3466  -0.2369  -0.2007  -0.0935
     0.0633   0.1478   0.1999   0.2547   0.2902   0.2943   0.3565   0.3810
     0.3832   0.3939   0.4901   0.5121   0.6017   0.6588   0.6676   0.6843
     0.7225   0.7389   0.7858   0.8272   0.8434   0.8626   0.8963   0.9511
     0.9633   0.9668   1.0144   1.0492   1.0955   1.1202   1.1373   1.1486
     1.1574   1.2136   1.2456   1.2659   1.3388   1.3491   1.3596   1.3765
     1.3834   1.3848   1.3861   1.4025   1.4064   1.4722   1.4835   1.4860
     1.5009   1.5217   1.5583   1.5635   1.5731   1.5769   1.5790   1.6009
     1.6090   1.6096   1.6151   1.6301   1.6308   1.6519   1.6634   1.6704
     1.6738   1.6898   1.6899   1.6926   1.6967   1.7018   1.7102   1.7104
     1.7255   1.7653   1.7736   1.7766   1.7779   1.7789   1.7853   1.7858
     1.7920   1.7979   1.8102   1.8151   1.8174   1.8221   1.8254   1.8341
     1.8394   1.8488   1.8566   1.8728   1.8780   1.8844   1.8850   1.8928
     1.8933   1.8951   1.8997   1.9201   1.9209   1.9228   1.9261   1.9302
     1.9330   1.9367   1.9461   1.9540   1.9556   1.9583   1.9599   1.9619
     1.9666   1.9719   1.9915   2.0007   2.0019   2.0063   2.0115   2.0198
     2.0212   2.0288   2.0407   2.0439   2.0518   2.0553   2.0596   2.0597
     2.0607   2.0673   2.0701   2.0746   2.0772   2.0799   2.0835   2.0914
     2.0940   2.1048   2.1081   2.1135   2.1169   2.1231   2.1234   2.1270
     2.1297   2.1301   2.1346   2.1362   2.1368   2.1400   2.1572   2.1573
     2.1637   2.1666   2.1762   2.1865   2.1914   2.1924   2.1986   2.2005
     2.2018   2.2074   2.2103   2.2117   2.2128   2.2246   2.2264   2.2268
     2.2273   2.2321   2.2329   2.2334   2.2354   2.2359   2.2451   2.2465
     2.2504   2.2535   2.2552   2.2601   2.2654   2.2664   2.2684   2.2702
     2.2725   2.2731   2.2735   2.2778   2.2815   2.2819   2.2819   2.2846
     2.2881   2.2882   2.2975   2.3016   2.3052   2.3061   2.3061   2.3077
     2.3102   2.3113   2.3143   2.3186   2.3207   2.3226   2.3230   2.3309
     2.3354   2.3401   2.3402   2.3414   2.3440   2.3463   2.3505   2.3509
     2.3541   2.3572   2.3600   2.3640   2.3652   2.3664   2.3680   2.3686
     2.3702   2.3745   2.3752   2.3755   2.3764   2.3803   2.3898   2.4011
     2.4040   2.4042   2.4052   2.4141   2.4148   2.4194   2.4203   2.4206
     2.4223   2.4231   2.4236   2.4244   2.4297   2.4301   2.4335   2.4411
     2.4440   2.4452   2.4455   2.4458   2.4482   2.4490   2.4493   2.4519
     2.4536   2.4564   2.4600   2.4602   2.4615   2.4653   2.4682   2.4703
     2.4727   2.4848   2.4895   2.4952   2.4957   2.4962   2.4963   2.4964
     2.5005   2.5012   2.5068   2.5083   2.5101   2.5167   2.5209   2.5237
     2.5263   2.5290   2.5295   2.5307   2.5332   2.5359   2.5373   2.5410
     2.5439   2.5445   2.5456   2.5505   2.5533   2.5553   2.5566   2.5628
     2.5675   2.5679   2.5713   2.5742   2.5750   2.5751   2.5829   2.5829
     2.5833   2.5839   2.5851   2.5882   2.5915   2.6022   2.6060   2.6082
     2.6091   2.6114   2.6117   2.6133   2.6139   2.6201   2.6331   2.6364
     2.6374   2.6415   2.6437   2.6453   2.6513   2.6542   2.6589   2.6660
     2.6714   2.6725   2.6736   2.6767   2.6787   2.6789   2.6814   2.6832
     2.6854   2.6877   2.6882   2.6923   2.6928   2.6954   2.6961   2.7090
     2.7107   2.7113   2.7140   2.7141   2.7270   2.7303   2.7307   2.7312
     2.7332   2.7360   2.7392   2.7398   2.7411   2.7430   2.7455   2.7480
     2.7578   2.7607   2.7613   2.7618   2.7629   2.7674   2.7680   2.7690
     2.7731   2.7781   2.7786   2.7791   2.7809   2.7852   2.7867   2.7887
     2.7923   2.7941   2.7964   2.7966   2.7995   2.8079   2.8083   2.8087
     2.8087   2.8135   2.8146   2.8162   2.8165   2.8175   2.8205   2.8214
     2.8238   2.8273   2.8315   2.8387   2.8400   2.8402   2.8465   2.8493
     2.8530   2.8632   2.8635   2.8650   2.8699   2.8704   2.8730   2.8775
     2.8776   2.8797   2.8854   2.8907   2.8972   2.9002   2.9026   2.9088
     2.9098   2.9109   2.9150   2.9206   2.9231   2.9395   2.9400   2.9618
     2.9631   2.9654   2.9663   2.9727   2.9742   2.9780   2.9875   2.9880
     2.9934   2.9987   2.9993   3.0067   3.0075   3.0144   3.0160   3.0160
     3.0168   3.0215   3.0250   3.0255   3.0326   3.0412   3.0413   3.0479
     3.0505   3.0619   3.0628   3.0639   3.0655   3.0711   3.0823   3.0824
     3.0847   3.0868   3.0954   3.0956   3.0976   3.0989   3.1009   3.1010
     3.1017   3.1121   3.1134   3.1165   3.1180   3.1223   3.1258   3.1289
[...]
    13.3937  13.3958  13.4079  13.4107  13.4374  13.4742  13.4790  13.4814
    13.4892  13.4927  13.4960  13.5146  13.5229  13.5236  13.5367  13.5486
    13.5490  13.5580  13.5685  13.5820  13.5850  13.5902  13.6053  13.6390
    13.6446  13.6710  13.6791  13.6969  13.7056  13.7061  13.7081  13.7130
    13.7486  13.7490  13.7607  13.7640  13.7697  13.7712  13.7719  13.8010
    13.8111  13.8266  13.8526  13.8664  13.8669  13.8710  13.8789  13.8885
    13.8887  13.8914  13.9076  13.9269  13.9383  13.9509  13.9628  13.9715
    14.0425  14.0490  14.0540  14.0791  14.0849  14.0900  14.0903  14.1266
    14.1282  14.1419  14.1536  14.1561  14.1599  14.1621  14.1678  14.1760
    14.1873  14.1948  14.2105  14.2200  14.2291  14.2293  14.2326  14.2395
    14.2526  14.2673  14.2688  14.2690  14.2990  14.3171  14.3422  14.3437
    14.3485  14.3541  14.3605  14.3687  14.4007  14.4185  14.4226  14.4263
    14.4284  14.4333  14.4476  14.4520  14.4645  14.4746  14.4953  14.4981
    14.5123  14.5305  14.5431  14.5734  14.5835  14.6048  14.6095  14.6346
    14.6421  14.6447  14.6697

     the Fermi energy is     8.2692 ev

!    total energy              =  -44078.14019475 Ry
     estimated scf accuracy    <       0.00000056 Ry
     smearing contrib. (-TS)   =       0.56876244 Ry
     internal energy E=F+TS    =  -44078.70895719 Ry

     The total energy is F=E-TS. E is the sum of the following terms:
     one-electron contribution = -203395.19347740 Ry
     hartree contribution      =  106189.93955805 Ry
     xc contribution           =  -21306.04714067 Ry
     ewald contribution        =   74432.59210283 Ry

     convergence has been achieved in  27 iterations

     negative rho (up, down):  1.175E+01 0.000E+00

     Forces acting on atoms (cartesian axes, Ry/au):

     atom    1 type  1   force =     0.00000000   -0.00165385    0.02673623
     atom    2 type  1   force =    -0.00000087   -0.00165053    0.02674333
     atom    3 type  1   force =     0.00000113   -0.00165056    0.02674338
     atom    4 type  1   force =     0.00000000   -0.00165373    0.02673617
     atom    5 type  1   force =     0.00000000   -0.00165390    0.02673589
     atom    6 type  1   force =    -0.00000093   -0.00165053    0.02674333
     atom    7 type  1   force =    -0.00000113   -0.00165056    0.02674338
     atom    8 type  1   force =     0.00000130   -0.00165043    0.02674323
     atom    9 type  1   force =     0.00000087   -0.00165053    0.02674333
     atom   10 type  1   force =     0.00000000   -0.00165356    0.02673646
     atom   11 type  1   force =     0.00000000   -0.00165377    0.02673581
     atom   12 type  1   force =    -0.00000079   -0.00165025    0.02674359
     atom   13 type  1   force =    -0.00000130   -0.00165043    0.02674323
     atom   14 type  1   force =     0.00000120   -0.00165043    0.02674321
     atom   15 type  1   force =     0.00000093   -0.00165053    0.02674333
     atom   16 type  1   force =     0.00000000   -0.00165372    0.02673610
     atom   17 type  1   force =     0.00000000   -0.00165362    0.02673597
     atom   18 type  1   force =    -0.00000074   -0.00165040    0.02674331
     atom   19 type  1   force =    -0.00000120   -0.00165043    0.02674321
     atom   20 type  1   force =     0.00000122   -0.00165045    0.02674318
     atom   21 type  1   force =     0.00000079   -0.00165025    0.02674359
     atom   22 type  1   force =     0.00000000   -0.00165370    0.02673573
     atom   23 type  1   force =    -0.00000122   -0.00165045    0.02674318
     atom   24 type  1   force =     0.00000074   -0.00165040    0.02674331
     atom   25 type  1   force =     0.00000027    0.00336114   -0.01650062
     atom   26 type  1   force =     0.00000009    0.00336212   -0.01650242
     atom   27 type  1   force =    -0.00000020    0.00336115   -0.01650080
     atom   28 type  1   force =     0.00000030    0.00336121   -0.01650048
     atom   29 type  1   force =    -0.00000015    0.00336117   -0.01650075
     atom   30 type  1   force =     0.00000020    0.00336115   -0.01650080
     atom   31 type  1   force =    -0.00000027    0.00336114   -0.01650062
     atom   32 type  1   force =     0.00000030    0.00336127   -0.01650052
     atom   33 type  1   force =     0.00000015    0.00336215   -0.01650236
     atom   34 type  1   force =     0.00000010    0.00336230   -0.01650241
     atom   35 type  1   force =     0.00000015    0.00336117   -0.01650075
     atom   36 type  1   force =    -0.00000009    0.00336212   -0.01650242
     atom   37 type  1   force =    -0.00000015    0.00336215   -0.01650236
     atom   38 type  1   force =    -0.00000053   -0.00160587   -0.00959519
     atom   39 type  1   force =    -0.00000054   -0.00160558   -0.00959525
     atom   40 type  1   force =    -0.00000072   -0.00160579   -0.00959532
     atom   41 type  1   force =     0.00000008    0.00336229   -0.01650239
     atom   42 type  1   force =    -0.00000019    0.00336131   -0.01650081
     atom   43 type  1   force =    -0.00000010    0.00336230   -0.01650241
     atom   44 type  1   force =    -0.00000030    0.00336121   -0.01650048
     atom   45 type  1   force =     0.00000072   -0.00160579   -0.00959532
     atom   46 type  1   force =     0.00000000   -0.00160649   -0.00958920
     atom   47 type  1   force =     0.00000031    0.00336135   -0.01650060
     atom   48 type  1   force =    -0.00000019    0.00336134   -0.01650081
     atom   49 type  1   force =     0.00000019    0.00336131   -0.01650081
     atom   50 type  1   force =     0.00000019    0.00336134   -0.01650081
     atom   51 type  1   force =    -0.00000030    0.00336127   -0.01650052
     atom   52 type  1   force =     0.00000073   -0.00160560   -0.00959537
     atom   53 type  1   force =     0.00000000   -0.00160633   -0.00958925
     atom   54 type  1   force =     0.00000000   -0.00160645   -0.00958926
     atom   55 type  1   force =     0.00000053   -0.00160587   -0.00959519
     atom   56 type  1   force =     0.00000000   -0.00160655   -0.00958895
     atom   57 type  1   force =     0.00000000   -0.00160631   -0.00958896
     atom   58 type  1   force =    -0.00000008    0.00336229   -0.01650239
     atom   59 type  1   force =    -0.00000056   -0.00160574   -0.00959530
     atom   60 type  1   force =     0.00000076   -0.00160575   -0.00959542
[...]
     atom  418 type  1   force =     0.00000004    0.00164878   -0.02671956
     atom  419 type  1   force =     0.00000021    0.00164852   -0.02671978
     atom  420 type  1   force =     0.00000039    0.00164868   -0.02672577
     atom  421 type  1   force =     0.00000039    0.00164865   -0.02672600
     atom  422 type  1   force =    -0.00000039    0.00164868   -0.02672577
     atom  423 type  1   force =    -0.00000039    0.00164865   -0.02672600
     atom  424 type  1   force =    -0.00000004    0.00164878   -0.02671956
     atom  425 type  1   force =     0.00000020    0.00164858   -0.02672639
     atom  426 type  1   force =    -0.00000042    0.00164877   -0.02672606
     atom  427 type  1   force =     0.00000006    0.00164889   -0.02671971
     atom  428 type  1   force =     0.00000034    0.00164895   -0.02672587
     atom  429 type  1   force =    -0.00000006    0.00164889   -0.02671971
     atom  430 type  1   force =     0.00000042    0.00164877   -0.02672606
     atom  431 type  1   force =    -0.00000026    0.00164886   -0.02671976
     atom  432 type  1   force =     0.00000034    0.00164885   -0.02672619

     Total force =     0.233237     Total SCF correction =     0.004577

     General routines

     Parallel routines

   This run was terminated on:   6:15: 5  25Sep2021

   JOB DONE.