     Program PWSCF v.6.6 starts on 17Sep2021 at  2:31:25

     K-points division:     npool     =       2
     R & G space division:  proc/nbgrp/npool/nimage =      24
     Fft bands division:     nmany     =       1
     Reading input from ../inputs/input_ausurf_432

     Current dimensions of program PWSCF are:
     Max number of different atomic species (ntypx) = 10
     Max number of k-points (npk) =  40000
     Max angular momentum in pseudopotentials (lmaxx) =  3

     Subspace diagonalization in iterative solution of the eigenvalue problem:
     one sub-group per band group will be used

     Found symmetry operation: I + (  0.1667  0.0000  0.0000)
     This is a supercell, fractional translations are disabled

     Title:
      Ausurf

     bravais-lattice index     =            8
     lattice parameter (alat)  =      33.4482  a.u.
     unit-cell volume          =   77333.9228 (a.u.)^3
     number of atoms/cell      =          432
     number of atomic types    =            1
     number of electrons       =      4752.00
     number of Kohn-Sham states=         2851
     kinetic-energy cutoff     =      40.0000  Ry
     charge density cutoff     =     350.0000  Ry
     convergence threshold     =      1.0E-06
     mixing beta               =       0.7000
     number of iterations used =            8  TF        mixing
     Exchange-correlation=  SLA  PW   PBE  PBE
                           (   1   4   3   4   0   0   0)

     celldm(1)=  33.448152  celldm(2)=   1.154701  celldm(3)=   1.789717
     celldm(4)=   0.000000  celldm(5)=   0.000000  celldm(6)=   0.000000

     crystal axes: (cart. coord. in units of alat)
               a(1) = (   1.000000   0.000000   0.000000 )
               a(2) = (   0.000000   1.154701   0.000000 )
               a(3) = (   0.000000   0.000000   1.789717 )

     reciprocal axes: (cart. coord. in units 2 pi/alat)
               b(1) = (  1.000000  0.000000  0.000000 )
               b(2) = (  0.000000  0.866025  0.000000 )
               b(3) = (  0.000000  0.000000  0.558748 )

     PseudoPot. # 1 for Au read from file:
     /marconi/home/userexternal/czeni000/dft_src/pseudo/Au.pbe-nd-van.UPF
     MD5 check sum: deb5c07af10777505a79e28f5b4b4115
     Pseudo is Ultrasoft + core correction, Zval = 11.0
     Generated by new atomic code, or converted to UPF format
     Using radial grid of  985 points,  3 beta functions with:
                l(1) =   1
                l(2) =   2
                l(3) =   2
     Q(r) pseudized with  8 coefficients,  rinner =    1.100   1.100   1.100
                                                       1.100   1.100

     atomic species   valence    mass     pseudopotential
        Au            11.00   196.96000     Au( 1.00)

      2 Sym. Ops. (no inversion) found

   Cartesian axes

     site n.     atom                  positions (alat units)
         1           Au  tau(   1) = (   0.0000000   0.0000000   0.0000000  )
         2           Au  tau(   2) = (   0.1666667   0.0000000   0.0000000  )
         3           Au  tau(   3) = (   0.3333333   0.0000000   0.0000000  )
         4           Au  tau(   4) = (   0.0000000   0.2886751   0.0000000  )
         5           Au  tau(   5) = (   0.5000000   0.0000000   0.0000000  )
         6           Au  tau(   6) = (   0.1666667   0.2886751   0.0000000  )
         7           Au  tau(   7) = (   0.6666667   0.0000000   0.0000000  )
         8           Au  tau(   8) = (   0.3333333   0.2886751   0.0000000  )
         9           Au  tau(   9) = (   0.8333333   0.0000000   0.0000000  )
        10           Au  tau(  10) = (   0.0000000   0.5773503   0.0000000  )
        11           Au  tau(  11) = (   0.5000000   0.2886751   0.0000000  )
        12           Au  tau(  12) = (   0.1666667   0.5773503   0.0000000  )
        13           Au  tau(  13) = (   0.6666667   0.2886751   0.0000000  )
        14           Au  tau(  14) = (   0.3333333   0.5773503   0.0000000  )
        15           Au  tau(  15) = (   0.8333333   0.2886751   0.0000000  )
        16           Au  tau(  16) = (   0.0000000   0.8660254   0.0000000  )
        17           Au  tau(  17) = (   0.5000000   0.5773503   0.0000000  )
        18           Au  tau(  18) = (   0.1666667   0.8660254   0.0000000  )
        19           Au  tau(  19) = (   0.6666667   0.5773503   0.0000000  )
        20           Au  tau(  20) = (   0.3333333   0.8660254   0.0000000  )
        21           Au  tau(  21) = (   0.8333333   0.5773503   0.0000000  )
        22           Au  tau(  22) = (   0.5000000   0.8660254   0.0000000  )
        23           Au  tau(  23) = (   0.6666667   0.8660254   0.0000000  )
        24           Au  tau(  24) = (   0.8333333   0.8660254   0.0000000  )
        25           Au  tau(  25) = (   0.0833333   0.0481125   0.1360828  )
        26           Au  tau(  26) = (   0.2500000   0.0481125   0.1360828  )
        27           Au  tau(  27) = (   0.4166667   0.0481125   0.1360828  )
        28           Au  tau(  28) = (   0.0833333   0.3367877   0.1360828  )
        29           Au  tau(  29) = (   0.4166667   0.3367877   0.1360828  )
        30           Au  tau(  30) = (   0.5833333   0.0481125   0.1360828  )
        31           Au  tau(  31) = (   0.9166667   0.0481125   0.1360828  )
        32           Au  tau(  32) = (   0.0833333   0.6254628   0.1360828  )
        33           Au  tau(  33) = (   0.2500000   0.3367877   0.1360828  )
        34           Au  tau(  34) = (   0.2500000   0.6254628   0.1360828  )
        35           Au  tau(  35) = (   0.5833333   0.3367877   0.1360828  )
        36           Au  tau(  36) = (   0.7500000   0.0481125   0.1360828  )
        37           Au  tau(  37) = (   0.7500000   0.3367877   0.1360828  )
        38           Au  tau(  38) = (   0.1666667   0.1924501   0.1360828  )
        39           Au  tau(  39) = (   0.1666667   0.4811252   0.1360828  )
        40           Au  tau(  40) = (   0.6666667   0.1924501   0.1360828  )
        41           Au  tau(  41) = (   0.2500000   0.9141379   0.1360828  )
        42           Au  tau(  42) = (   0.4166667   0.6254628   0.1360828  )
        43           Au  tau(  43) = (   0.7500000   0.6254628   0.1360828  )
        44           Au  tau(  44) = (   0.9166667   0.3367877   0.1360828  )
        45           Au  tau(  45) = (   0.3333333   0.1924501   0.1360828  )
        46           Au  tau(  46) = (   0.5000000   0.1924501   0.1360828  )
        47           Au  tau(  47) = (   0.0833333   0.9141379   0.1360828  )
        48           Au  tau(  48) = (   0.4166667   0.9141379   0.1360828  )
        49           Au  tau(  49) = (   0.5833333   0.6254628   0.1360828  )
        50           Au  tau(  50) = (   0.5833333   0.9141379   0.1360828  )
        51           Au  tau(  51) = (   0.9166667   0.6254628   0.1360828  )
        52           Au  tau(  52) = (   0.3333333   0.4811252   0.1360828  )
        53           Au  tau(  53) = (   0.5000000   0.4811252   0.1360828  )
        54           Au  tau(  54) = (   0.5000000   0.7698003   0.1360828  )
        55           Au  tau(  55) = (   0.8333333   0.1924501   0.1360828  )
        56           Au  tau(  56) = (   1.0000000   0.1924501   0.1360828  )
        57           Au  tau(  57) = (   1.0000000   0.4811252   0.1360828  )
        58           Au  tau(  58) = (   0.7500000   0.9141379   0.1360828  )
        59           Au  tau(  59) = (   0.1666667   0.7698003   0.1360828  )
        60           Au  tau(  60) = (   0.3333333   0.7698003   0.1360828  )
[...]
       418           Au  tau( 418) = (   0.2500000   0.1443376   1.2247449  )
       419           Au  tau( 419) = (   0.2500000   0.4330127   1.2247449  )
       420           Au  tau( 420) = (   0.4166667   0.1443376   1.2247449  )
       421           Au  tau( 421) = (   0.4166667   0.7216879   1.2247449  )
       422           Au  tau( 422) = (   0.5833333   0.1443376   1.2247449  )
       423           Au  tau( 423) = (   0.5833333   0.7216879   1.2247449  )
       424           Au  tau( 424) = (   0.7500000   0.1443376   1.2247449  )
       425           Au  tau( 425) = (   0.9166667   0.4330127   1.2247449  )
       426           Au  tau( 426) = (   0.5833333   1.0103630   1.2247449  )
       427           Au  tau( 427) = (   0.7500000   1.0103630   1.2247449  )
       428           Au  tau( 428) = (   0.9166667   1.0103630   1.2247449  )
       429           Au  tau( 429) = (   0.2500000   1.0103630   1.2247449  )
       430           Au  tau( 430) = (   0.4166667   1.0103630   1.2247449  )
       431           Au  tau( 431) = (   0.7500000   0.7216879   1.2247449  )
       432           Au  tau( 432) = (   0.9166667   0.7216879   1.2247449  )

     number of k points=     4  Marzari-Vanderbilt smearing, width (Ry)=  0.0500
                       cart. coord. in units 2pi/alat
        k(    1) = (   0.1250000   0.1082532   0.0000000), wk =   0.5000000
        k(    2) = (   0.1250000   0.3247595   0.0000000), wk =   0.5000000
        k(    3) = (   0.3750000   0.1082532   0.0000000), wk =   0.5000000
        k(    4) = (   0.3750000   0.3247595   0.0000000), wk =   0.5000000

     Initial potential from superposition of free atoms

     starting charge 4746.98365, renormalised to 4752.00000

     negative rho (up, down):  1.152E+01 0.000E+00
     Starting wfcs are 3888 randomized atomic wfcs

     Self-consistent Calculation

     iteration #  1     ecut=    40.00 Ry     beta= 0.70
     Davidson diagonalization with overlap
     ethr =  1.00E-02,  avg # of iterations =  3.0

     Threshold (ethr) on eigenvalues was too large:
     Diagonalizing with lowered threshold

     Davidson diagonalization with overlap
     ethr =  3.34E-04,  avg # of iterations =  3.2

     negative rho (up, down):  1.095E+01 0.000E+00

     total energy              =  -44077.60689335 Ry
     estimated scf accuracy    <      18.95634256 Ry

[...]

     iteration # 10     ecut=    40.00 Ry     beta= 0.70
     Davidson diagonalization with overlap
     c_bands:  1 eigenvalues not converged
     ethr =  2.94E-05,  avg # of iterations = 20.5

[...]

     iteration # 16     ecut=    40.00 Ry     beta= 0.70
     Davidson diagonalization with overlap
     c_bands:  1 eigenvalues not converged
     ethr =  5.72E-06,  avg # of iterations = 15.8

[...]

     total energy              =  -44078.14019479 Ry
     estimated scf accuracy    <       0.00000292 Ry

     iteration # 28     ecut=    40.00 Ry     beta= 0.70
     Davidson diagonalization with overlap
     ethr =  6.15E-11,  avg # of iterations =  2.0

[...]

     End of self-consistent calculation

          k = 0.1250 0.1083 0.0000 (330335 PWs)   bands (ev):

    -0.8187  -0.4829  -0.4770  -0.3735  -0.2669  -0.1475  -0.0898  -0.0573
    -0.0403   0.0199   0.0626   0.1471   0.2074   0.2350   0.2655   0.3410
     0.4001   0.4460   0.4616   0.5181   0.5427   0.5959   0.6020   0.7001
     0.7094   0.7364   0.8846   0.9105   0.9151   0.9197   0.9696   0.9863
     1.0151   1.0408   1.1035   1.1196   1.1344   1.1661   1.1714   1.1990
     1.2423   1.2494   1.2679   1.2859   1.2892   1.2924   1.3018   1.4023
[...]
     1.9472   1.9555   1.9557   1.9568   1.9672   1.9677   1.9800   1.9820
     1.9849   1.9914   1.9985   2.0112   2.0128   2.0158   2.0171   2.0210
     2.0263   2.0277   2.0320   2.0355   2.0411   2.0440   2.0450   2.0452
     2.0513   2.0612   2.0652   2.0678   2.0758   2.0813   2.0933   2.0975
     2.1005   2.1021   2.1185   2.1192   2.1197   2.1229   2.1229   2.1234
     2.1245   2.1250   2.1274   2.1290   2.1374   2.1406   2.1440   2.1501
     2.1506   2.1518   2.1552   2.1569   2.1584   2.1603   2.1639   2.1651
     2.1659   2.1761   2.1785   2.1821   2.1825   2.1955   2.2029   2.2040
     2.2099   2.2117   2.2127   2.2156   2.2185   2.2189   2.2189   2.2194
     2.2230   2.2263   2.2273   2.2323   2.2375   2.2410   2.2432   2.2446
     2.2476   2.2506   2.2577   2.2597   2.2610   2.2632   2.2683   2.2761
     2.2902   2.2917   2.2981   2.2988   2.2995   2.3020   2.3069   2.3077
     2.3083   2.3095   2.3104   2.3112   2.3121   2.3154   2.3198   2.3206
     2.3247   2.3253   2.3259   2.3279   2.3281   2.3332   2.3342   2.3433
     2.3463   2.3511   2.3531   2.3551   2.3595   2.3631   2.3667   2.3719
     2.3725   2.3753   2.3856   2.3862   2.3880   2.3894   2.3903   2.3922
     2.3939   2.3988   2.4021   2.4122   2.4125   2.4127   2.4155   2.4158
     2.4256   2.4262   2.4306   2.4338   2.4416   2.4431   2.4440   2.4460
     2.4466   2.4481   2.4494   2.4497   2.4518   2.4519   2.4557   2.4603
     2.4649   2.4726   2.4737   2.4749   2.4763   2.4821   2.4848   2.4849
     2.4853   2.4887   2.4910   2.4950   2.4980   2.5035   2.5097   2.5113
     2.5116   2.5121   2.5182   2.5190   2.5197   2.5229   2.5230   2.5246
     2.5340   2.5366   2.5377   2.5412   2.5438   2.5456   2.5469   2.5511
     2.5538   2.5567   2.5720   2.5756   2.5777   2.5778   2.5781   2.5811
     2.5817   2.5820   2.5845   2.5848   2.5870   2.5934   2.5945   2.5949
     2.5960   2.5965   2.6016   2.6041   2.6056   2.6113   2.6174   2.6261
     2.6263   2.6282   2.6324   2.6327   2.6353   2.6359   2.6375   2.6390
     2.6442   2.6520   2.6609   2.6640   2.6651   2.6666   2.6739   2.6751
     2.6757   2.6799   2.6814   2.6824   2.6890   2.6901   2.6913   2.6956
     2.6967   2.7009   2.7021   2.7069   2.7137   2.7148   2.7149   2.7204
     2.7226   2.7252   2.7255   2.7265   2.7269   2.7296   2.7345   2.7365
     2.7397   2.7408   2.7409   2.7439   2.7441   2.7522   2.7540   2.7584
     2.7643   2.7670   2.7692   2.7697   2.7797   2.7799   2.7818   2.7826
     2.7827   2.7831   2.7864   2.7881   2.7885   2.7888   2.7950   2.7987
     2.7997   2.8035   2.8111   2.8134   2.8147   2.8166   2.8172   2.8184
     2.8210   2.8270   2.8284   2.8373   2.8398   2.8470   2.8478   2.8504
     2.8516   2.8533   2.8535   2.8595   2.8606   2.8608   2.8609   2.8625
     2.8696   2.8750   2.8825   2.8937   2.8957   2.8968   2.8986   2.9017
     2.9020   2.9038   2.9040   2.9054   2.9088   2.9139   2.9142   2.9150
     2.9247   2.9269   2.9303   2.9311   2.9329   2.9338   2.9354   2.9357
     2.9444   2.9500   2.9629   2.9644   2.9655   2.9659   2.9682   2.9719
     2.9724   2.9763   2.9773   2.9981   3.0078   3.0096   3.0121   3.0129
     3.0160   3.0276   3.0279   3.0357   3.0375   3.0376   3.0389   3.0405
     3.0421   3.0542   3.0545   3.0619   3.0641   3.0681   3.0718   3.0796
     3.0804   3.0820   3.0849   3.0850   3.0918   3.0971   3.0974   3.0975
     3.0985   3.0989   3.1048   3.1089   3.1137   3.1176   3.1235   3.1259
[...]
    13.3818  13.3857  13.3900  13.4012  13.4133  13.4183  13.4277  13.4300
    13.4323  13.4655  13.4714  13.4736  13.5033  13.5061  13.5107  13.5339
    13.5496  13.5697  13.5749  13.5872  13.5914  13.6075  13.6095  13.6198
    13.6200  13.6512  13.6599  13.6736  13.6852  13.6854  13.6953  13.7058
    13.7160  13.7208  13.7288  13.7546  13.7637  13.7693  13.7710  13.7712
    13.7754  13.8004  13.8181  13.8181  13.8191  13.8242  13.8287  13.8300
    13.8323  13.8366  13.8619  13.8957  13.9030  13.9037  13.9130  13.9150
    13.9262  13.9376  13.9576  13.9728  13.9904  13.9951  13.9964  14.0048
    14.0235  14.0298  14.0308  14.0541  14.0574  14.0733  14.0852  14.1158
    14.1176  14.1194  14.1501  14.1513  14.1520  14.1565  14.1587  14.1627
    14.1630  14.1648  14.1872  14.1918  14.2046  14.2505  14.2529  14.2825
    14.2910  14.2955  14.3033  14.3118  14.3279  14.3297  14.3462  14.3716
    14.3818  14.3837  14.4024  14.4027  14.4062  14.4100  14.4225  14.4256
    14.4577  14.4593  14.4619  14.5044  14.5056  14.5120  14.5782  14.6058
    14.6319  14.6478  14.6609

[...]

          k = 0.3750 0.3248 0.0000 (330443 PWs)   bands (ev):

    -0.6865  -0.5747  -0.5379  -0.4281  -0.3469  -0.2372  -0.2010  -0.0938
     0.0630   0.1475   0.1996   0.2544   0.2899   0.2939   0.3562   0.3807
     0.3829   0.3936   0.4898   0.5118   0.6014   0.6585   0.6672   0.6840
     0.7222   0.7386   0.7855   0.8269   0.8431   0.8623   0.8960   0.9508
     0.9630   0.9665   1.0141   1.0489   1.0952   1.1199   1.1369   1.1483
     1.1571   1.2133   1.2453   1.2655   1.3384   1.3488   1.3593   1.3762
     1.3831   1.3845   1.3858   1.4021   1.4061   1.4718   1.4832   1.4857
     1.5006   1.5214   1.5580   1.5632   1.5728   1.5766   1.5787   1.6005
     1.6087   1.6093   1.6148   1.6298   1.6305   1.6516   1.6631   1.6701
     1.6735   1.6895   1.6896   1.6923   1.6964   1.7015   1.7099   1.7101
     1.7252   1.7650   1.7733   1.7763   1.7776   1.7786   1.7850   1.7855
     1.7917   1.7976   1.8099   1.8148   1.8171   1.8218   1.8251   1.8337
     1.8391   1.8485   1.8563   1.8725   1.8777   1.8841   1.8847   1.8925
     1.8930   1.8948   1.8994   1.9198   1.9206   1.9224   1.9258   1.9299
     1.9327   1.9364   1.9458   1.9537   1.9553   1.9579   1.9596   1.9616
     1.9663   1.9716   1.9912   2.0004   2.0016   2.0060   2.0112   2.0195
     2.0208   2.0285   2.0404   2.0436   2.0515   2.0550   2.0593   2.0594
     2.0604   2.0670   2.0698   2.0743   2.0769   2.0796   2.0832   2.0911
     2.0937   2.1045   2.1077   2.1131   2.1166   2.1228   2.1231   2.1267
     2.1293   2.1298   2.1343   2.1359   2.1365   2.1396   2.1569   2.1570
     2.1634   2.1663   2.1759   2.1862   2.1911   2.1920   2.1983   2.2002
     2.2015   2.2071   2.2100   2.2114   2.2125   2.2243   2.2261   2.2265
     2.2270   2.2317   2.2326   2.2331   2.2350   2.2356   2.2448   2.2462
     2.2500   2.2532   2.2549   2.2597   2.2651   2.2661   2.2681   2.2699
     2.2722   2.2728   2.2732   2.2775   2.2812   2.2816   2.2816   2.2842
     2.2877   2.2879   2.2972   2.3013   2.3048   2.3058   2.3058   2.3074
     2.3099   2.3110   2.3140   2.3183   2.3203   2.3223   2.3226   2.3306
     2.3351   2.3398   2.3399   2.3411   2.3437   2.3460   2.3502   2.3506
     2.3538   2.3569   2.3597   2.3637   2.3649   2.3661   2.3677   2.3682
     2.3699   2.3742   2.3749   2.3752   2.3761   2.3800   2.3895   2.4008
     2.4037   2.4039   2.4049   2.4138   2.4145   2.4191   2.4200   2.4203
     2.4220   2.4227   2.4233   2.4241   2.4294   2.4297   2.4332   2.4408
     2.4437   2.4449   2.4452   2.4455   2.4479   2.4487   2.4489   2.4516
     2.4533   2.4561   2.4597   2.4598   2.4612   2.4650   2.4679   2.4700
     2.4724   2.4845   2.4892   2.4949   2.4954   2.4959   2.4960   2.4961
     2.5002   2.5009   2.5065   2.5080   2.5098   2.5164   2.5206   2.5234
     2.5260   2.5287   2.5292   2.5304   2.5329   2.5355   2.5370   2.5407
     2.5436   2.5442   2.5453   2.5501   2.5530   2.5550   2.5562   2.5625
     2.5672   2.5676   2.5709   2.5739   2.5747   2.5749   2.5826   2.5826
     2.5830   2.5836   2.5848   2.5879   2.5912   2.6019   2.6056   2.6079
     2.6088   2.6111   2.6114   2.6130   2.6136   2.6198   2.6328   2.6361
     2.6371   2.6412   2.6434   2.6450   2.6510   2.6539   2.6585   2.6657
     2.6711   2.6722   2.6733   2.6764   2.6784   2.6786   2.6811   2.6828
     2.6850   2.6874   2.6879   2.6920   2.6925   2.6951   2.6958   2.7087
     2.7104   2.7109   2.7137   2.7138   2.7267   2.7300   2.7303   2.7309
     2.7329   2.7357   2.7389   2.7395   2.7408   2.7427   2.7452   2.7477
     2.7575   2.7604   2.7610   2.7615   2.7626   2.7671   2.7677   2.7687
     2.7728   2.7778   2.7783   2.7788   2.7807   2.7849   2.7864   2.7884
     2.7920   2.7938   2.7961   2.7963   2.7992   2.8076   2.8080   2.8084
     2.8084   2.8132   2.8143   2.8159   2.8162   2.8172   2.8202   2.8211
     2.8234   2.8270   2.8312   2.8384   2.8397   2.8399   2.8461   2.8490
     2.8527   2.8629   2.8632   2.8647   2.8696   2.8701   2.8728   2.8772
     2.8773   2.8794   2.8851   2.8904   2.8969   2.8999   2.9023   2.9085
     2.9094   2.9106   2.9146   2.9202   2.9228   2.9392   2.9397   2.9614
     2.9628   2.9651   2.9660   2.9724   2.9739   2.9777   2.9872   2.9876
     2.9931   2.9984   2.9990   3.0064   3.0072   3.0141   3.0157   3.0157
     3.0165   3.0212   3.0247   3.0252   3.0323   3.0409   3.0410   3.0476
     3.0502   3.0616   3.0624   3.0636   3.0652   3.0708   3.0820   3.0821
     3.0844   3.0865   3.0951   3.0953   3.0973   3.0985   3.1006   3.1007
     3.1014   3.1118   3.1131   3.1162   3.1177   3.1220   3.1255   3.1286
[...]
    13.3934  13.3955  13.4076  13.4104  13.4371  13.4740  13.4787  13.4811
    13.4890  13.4925  13.4957  13.5141  13.5226  13.5232  13.5364  13.5483
    13.5486  13.5578  13.5683  13.5817  13.5847  13.5899  13.6047  13.6387
    13.6443  13.6707  13.6787  13.6966  13.7054  13.7057  13.7075  13.7126
    13.7481  13.7487  13.7605  13.7635  13.7694  13.7708  13.7715  13.8006
    13.8109  13.8262  13.8521  13.8662  13.8666  13.8707  13.8786  13.8882
    13.8885  13.8911  13.9073  13.9267  13.9379  13.9503  13.9625  13.9713
    14.0422  14.0486  14.0537  14.0788  14.0840  14.0892  14.0900  14.1263
    14.1279  14.1416  14.1533  14.1558  14.1596  14.1618  14.1670  14.1757
    14.1871  14.1945  14.2097  14.2197  14.2288  14.2290  14.2323  14.2392
    14.2524  14.2671  14.2684  14.2688  14.2987  14.3168  14.3419  14.3435
    14.3480  14.3538  14.3602  14.3679  14.4005  14.4182  14.4218  14.4260
    14.4282  14.4330  14.4479  14.4517  14.4642  14.4746  14.4950  14.4989
    14.5120  14.5302  14.5428  14.5728  14.5833  14.6088  14.6342  14.6419
    14.6444  14.6523  14.6696

     the Fermi energy is     8.2689 ev

!    total energy              =  -44078.14019506 Ry
     estimated scf accuracy    <       0.00000041 Ry
     smearing contrib. (-TS)   =       0.56878590 Ry
     internal energy E=F+TS    =  -44078.70898096 Ry

     The total energy is F=E-TS. E is the sum of the following terms:
     one-electron contribution = -203395.60628594 Ry
     hartree contribution      =  106190.35654110 Ry
     xc contribution           =  -21306.05133894 Ry
     ewald contribution        =   74432.59210282 Ry

     convergence has been achieved in  28 iterations

     negative rho (up, down):  1.175E+01 0.000E+00

     Forces acting on atoms (cartesian axes, Ry/au):

     atom    1 type  1   force =     0.00000000   -0.00165422    0.02668549
     atom    2 type  1   force =    -0.00000072   -0.00165103    0.02669257
     atom    3 type  1   force =     0.00000109   -0.00165111    0.02669237
     atom    4 type  1   force =     0.00000000   -0.00165400    0.02668540
     atom    5 type  1   force =     0.00000000   -0.00165436    0.02668487
     atom    6 type  1   force =    -0.00000090   -0.00165079    0.02669260
     atom    7 type  1   force =    -0.00000109   -0.00165111    0.02669237
     atom    8 type  1   force =     0.00000117   -0.00165089    0.02669255
     atom    9 type  1   force =     0.00000072   -0.00165103    0.02669257
     atom   10 type  1   force =     0.00000000   -0.00165395    0.02668512
     atom   11 type  1   force =     0.00000000   -0.00165405    0.02668501
     atom   12 type  1   force =    -0.00000097   -0.00165078    0.02669262
     atom   13 type  1   force =    -0.00000117   -0.00165089    0.02669255
     atom   14 type  1   force =     0.00000111   -0.00165067    0.02669241
     atom   15 type  1   force =     0.00000090   -0.00165079    0.02669260
     atom   16 type  1   force =     0.00000000   -0.00165439    0.02668517
     atom   17 type  1   force =     0.00000000   -0.00165396    0.02668510
     atom   18 type  1   force =    -0.00000086   -0.00165111    0.02669249
     atom   19 type  1   force =    -0.00000111   -0.00165067    0.02669241
     atom   20 type  1   force =     0.00000116   -0.00165096    0.02669216
     atom   21 type  1   force =     0.00000097   -0.00165078    0.02669262
     atom   22 type  1   force =     0.00000000   -0.00165421    0.02668487
     atom   23 type  1   force =    -0.00000116   -0.00165096    0.02669216
     atom   24 type  1   force =     0.00000086   -0.00165111    0.02669249
     atom   25 type  1   force =     0.00000035    0.00336425   -0.01655271
     atom   26 type  1   force =     0.00000007    0.00336533   -0.01655438
     atom   27 type  1   force =    -0.00000025    0.00336427   -0.01655299
     atom   28 type  1   force =     0.00000036    0.00336438   -0.01655269
     atom   29 type  1   force =    -0.00000021    0.00336437   -0.01655293
     atom   30 type  1   force =     0.00000025    0.00336427   -0.01655299
     atom   31 type  1   force =    -0.00000035    0.00336425   -0.01655271
     atom   32 type  1   force =     0.00000034    0.00336449   -0.01655283
     atom   33 type  1   force =     0.00000011    0.00336542   -0.01655435
     atom   34 type  1   force =     0.00000009    0.00336554   -0.01655451
     atom   35 type  1   force =     0.00000021    0.00336437   -0.01655293
     atom   36 type  1   force =    -0.00000007    0.00336533   -0.01655438
     atom   37 type  1   force =    -0.00000011    0.00336542   -0.01655435
     atom   38 type  1   force =    -0.00000062   -0.00160633   -0.00964825
     atom   39 type  1   force =    -0.00000063   -0.00160611   -0.00964838
     atom   40 type  1   force =    -0.00000082   -0.00160634   -0.00964836
     atom   41 type  1   force =     0.00000011    0.00336540   -0.01655450
     atom   42 type  1   force =    -0.00000025    0.00336447   -0.01655301
     atom   43 type  1   force =    -0.00000009    0.00336554   -0.01655451
     atom   44 type  1   force =    -0.00000036    0.00336438   -0.01655269
     atom   45 type  1   force =     0.00000082   -0.00160634   -0.00964836
     atom   46 type  1   force =     0.00000000   -0.00160697   -0.00964216
     atom   47 type  1   force =     0.00000038    0.00336434   -0.01655281
     atom   48 type  1   force =    -0.00000023    0.00336437   -0.01655304
     atom   49 type  1   force =     0.00000025    0.00336447   -0.01655301
     atom   50 type  1   force =     0.00000023    0.00336437   -0.01655304
     atom   51 type  1   force =    -0.00000034    0.00336449   -0.01655283
     atom   52 type  1   force =     0.00000079   -0.00160611   -0.00964846
     atom   53 type  1   force =     0.00000000   -0.00160674   -0.00964224
     atom   54 type  1   force =     0.00000000   -0.00160686   -0.00964233
     atom   55 type  1   force =     0.00000062   -0.00160633   -0.00964825
     atom   56 type  1   force =     0.00000000   -0.00160696   -0.00964188
     atom   57 type  1   force =     0.00000000   -0.00160673   -0.00964203
     atom   58 type  1   force =    -0.00000011    0.00336540   -0.01655450
     atom   59 type  1   force =    -0.00000063   -0.00160631   -0.00964844
     atom   60 type  1   force =     0.00000081   -0.00160627   -0.00964855
[...]
     atom  418 type  1   force =    -0.00000006    0.00164893   -0.02666879
     atom  419 type  1   force =    -0.00000008    0.00164929   -0.02666904
     atom  420 type  1   force =     0.00000050    0.00164908   -0.02667498
     atom  421 type  1   force =     0.00000046    0.00164935   -0.02667494
     atom  422 type  1   force =    -0.00000050    0.00164908   -0.02667498
     atom  423 type  1   force =    -0.00000046    0.00164935   -0.02667494
     atom  424 type  1   force =     0.00000006    0.00164893   -0.02666879
     atom  425 type  1   force =     0.00000048    0.00164916   -0.02667522
     atom  426 type  1   force =    -0.00000042    0.00164918   -0.02667496
     atom  427 type  1   force =    -0.00000010    0.00164909   -0.02666867
     atom  428 type  1   force =     0.00000037    0.00164926   -0.02667507
     atom  429 type  1   force =     0.00000010    0.00164909   -0.02666867
     atom  430 type  1   force =     0.00000042    0.00164918   -0.02667496
     atom  431 type  1   force =    -0.00000009    0.00164935   -0.02666875
     atom  432 type  1   force =     0.00000023    0.00164934   -0.02667507

     Total force =     0.233251     Total SCF correction =     0.001420

     General routines

     Parallel routines

   This run was terminated on:   5: 3:52  17Sep2021

   JOB DONE.