     Program PWSCF v.6.6 starts on  8Sep2021 at  0:58:24

     K-points division:     npool     =       4
     R & G space division:  proc/nbgrp/npool/nimage =      12
     Fft bands division:     nmany     =       1
     Reading input from ../inputs/input_ausurf_18

     Current dimensions of program PWSCF are:
     Max number of different atomic species (ntypx) = 10
     Max number of k-points (npk) =  40000
     Max angular momentum in pseudopotentials (lmaxx) =  3

     Subspace diagonalization in iterative solution of the eigenvalue problem:
     one sub-group per band group will be used

     Title:
      Ausurf

     bravais-lattice index     =            8
     lattice parameter (alat)  =       5.5747  a.u.
     unit-cell volume          =    3222.2468 (a.u.)^3
     number of atoms/cell      =           18
     number of atomic types    =            1
     number of electrons       =       198.00
     number of Kohn-Sham states=          119
     kinetic-energy cutoff     =      40.0000  Ry
     charge density cutoff     =     350.0000  Ry
     convergence threshold     =      1.0E-06
     mixing beta               =       0.7000
     number of iterations used =            8  TF        mixing
     Exchange-correlation=  SLA  PW   PBE  PBE
                           (   1   4   3   4   0   0   0)

     celldm(1)=   5.574692  celldm(2)=   1.732051  celldm(3)=  10.738300
     celldm(4)=   0.000000  celldm(5)=   0.000000  celldm(6)=   0.000000

     crystal axes: (cart. coord. in units of alat)
               a(1) = (   1.000000   0.000000   0.000000 )
               a(2) = (   0.000000   1.732051   0.000000 )
               a(3) = (   0.000000   0.000000  10.738300 )

     reciprocal axes: (cart. coord. in units 2 pi/alat)
               b(1) = (  1.000000  0.000000  0.000000 )
               b(2) = (  0.000000  0.577350  0.000000 )
               b(3) = (  0.000000  0.000000  0.093125 )

     PseudoPot. # 1 for Au read from file:
     /marconi/home/userexternal/czeni000/dft_src/pseudo/Au.pbe-nd-van.UPF
     MD5 check sum: deb5c07af10777505a79e28f5b4b4115
     Pseudo is Ultrasoft + core correction, Zval = 11.0
     Generated by new atomic code, or converted to UPF format
     Using radial grid of  985 points,  3 beta functions with:
                l(1) =   1
                l(2) =   2
                l(3) =   2
     Q(r) pseudized with  8 coefficients,  rinner =    1.100   1.100   1.100
                                                       1.100   1.100

     atomic species   valence    mass     pseudopotential
        Au            11.00   196.96000     Au( 1.00)

      2 Sym. Ops. (no inversion) found

   Cartesian axes

     site n.     atom                  positions (alat units)
         1           Au  tau(   1) = (   0.0000000   0.0000000   0.0000000  )
         2           Au  tau(   2) = (   0.5000000   0.2886753   0.8164966  )
         3           Au  tau(   3) = (   1.0000000   1.1547007   0.8164966  )
         4           Au  tau(   4) = (   1.0000000   0.5773502   1.6329932  )
         5           Au  tau(   5) = (   0.5000000   1.4433756   1.6329932  )
         6           Au  tau(   6) = (   0.0000000   0.0000000   2.4494898  )
         7           Au  tau(   7) = (   0.5000000   0.8660254   2.4494898  )
         8           Au  tau(   8) = (   0.5000000   0.2886753   3.2659864  )
         9           Au  tau(   9) = (   1.0000000   1.1547007   3.2659864  )
        10           Au  tau(  10) = (   1.0000000   0.5773502   4.0824831  )
        11           Au  tau(  11) = (   0.5000000   1.4433756   4.0824831  )
        12           Au  tau(  12) = (   0.0000000   0.0000000   4.8989793  )
        13           Au  tau(  13) = (   0.5000000   0.8660254   4.8989793  )
        14           Au  tau(  14) = (   0.5000000   0.2886753   5.7154759  )
        15           Au  tau(  15) = (   1.0000000   1.1547007   5.7154759  )
        16           Au  tau(  16) = (   1.0000000   0.5773502   6.5319725  )
        17           Au  tau(  17) = (   0.5000000   1.4433756   6.5319725  )
        18           Au  tau(  18) = (   0.5000000   0.8660254   7.3484692  )

     number of k points=    48  Marzari-Vanderbilt smearing, width (Ry)=  0.0500
                       cart. coord. in units 2pi/alat
        k(    1) = (   0.0312500   0.0240563   0.0000000), wk =   0.0416667
        k(    2) = (   0.0312500   0.0721688   0.0000000), wk =   0.0416667
        k(    3) = (   0.0312500   0.1202813   0.0000000), wk =   0.0416667
        k(    4) = (   0.0312500   0.1683938   0.0000000), wk =   0.0416667
        k(    5) = (   0.0312500   0.2165064   0.0000000), wk =   0.0416667
        k(    6) = (   0.0312500   0.2646189   0.0000000), wk =   0.0416667
        k(    7) = (   0.0937500   0.0240563   0.0000000), wk =   0.0416667
        k(    8) = (   0.0937500   0.0721688   0.0000000), wk =   0.0416667
        k(    9) = (   0.0937500   0.1202813   0.0000000), wk =   0.0416667
        k(   10) = (   0.0937500   0.1683938   0.0000000), wk =   0.0416667
        k(   11) = (   0.0937500   0.2165064   0.0000000), wk =   0.0416667
        k(   12) = (   0.0937500   0.2646189   0.0000000), wk =   0.0416667
        k(   13) = (   0.1562500   0.0240563   0.0000000), wk =   0.0416667
        k(   14) = (   0.1562500   0.0721688   0.0000000), wk =   0.0416667
        k(   15) = (   0.1562500   0.1202813   0.0000000), wk =   0.0416667
        k(   16) = (   0.1562500   0.1683938   0.0000000), wk =   0.0416667
        k(   17) = (   0.1562500   0.2165064   0.0000000), wk =   0.0416667
        k(   18) = (   0.1562500   0.2646189   0.0000000), wk =   0.0416667
        k(   19) = (   0.2187500   0.0240563   0.0000000), wk =   0.0416667
        k(   20) = (   0.2187500   0.0721688   0.0000000), wk =   0.0416667
        k(   21) = (   0.2187500   0.1202813   0.0000000), wk =   0.0416667
        k(   22) = (   0.2187500   0.1683938   0.0000000), wk =   0.0416667
        k(   23) = (   0.2187500   0.2165064   0.0000000), wk =   0.0416667
        k(   24) = (   0.2187500   0.2646189   0.0000000), wk =   0.0416667
        k(   25) = (   0.2812500   0.0240563   0.0000000), wk =   0.0416667
        k(   26) = (   0.2812500   0.0721688   0.0000000), wk =   0.0416667
        k(   27) = (   0.2812500   0.1202813   0.0000000), wk =   0.0416667
        k(   28) = (   0.2812500   0.1683938   0.0000000), wk =   0.0416667
        k(   29) = (   0.2812500   0.2165064   0.0000000), wk =   0.0416667
        k(   30) = (   0.2812500   0.2646189   0.0000000), wk =   0.0416667
        k(   31) = (   0.3437500   0.0240563   0.0000000), wk =   0.0416667
        k(   32) = (   0.3437500   0.0721688   0.0000000), wk =   0.0416667
        k(   33) = (   0.3437500   0.1202813   0.0000000), wk =   0.0416667
        k(   34) = (   0.3437500   0.1683938   0.0000000), wk =   0.0416667
        k(   35) = (   0.3437500   0.2165064   0.0000000), wk =   0.0416667
        k(   36) = (   0.3437500   0.2646189   0.0000000), wk =   0.0416667
        k(   37) = (   0.4062500   0.0240563   0.0000000), wk =   0.0416667
        k(   38) = (   0.4062500   0.0721688   0.0000000), wk =   0.0416667
        k(   39) = (   0.4062500   0.1202813   0.0000000), wk =   0.0416667
        k(   40) = (   0.4062500   0.1683938   0.0000000), wk =   0.0416667
        k(   41) = (   0.4062500   0.2165064   0.0000000), wk =   0.0416667
        k(   42) = (   0.4062500   0.2646189   0.0000000), wk =   0.0416667
        k(   43) = (   0.4687500   0.0240563   0.0000000), wk =   0.0416667
        k(   44) = (   0.4687500   0.0721688   0.0000000), wk =   0.0416667
        k(   45) = (   0.4687500   0.1202813   0.0000000), wk =   0.0416667
        k(   46) = (   0.4687500   0.1683938   0.0000000), wk =   0.0416667
        k(   47) = (   0.4687500   0.2165064   0.0000000), wk =   0.0416667
        k(   48) = (   0.4687500   0.2646189   0.0000000), wk =   0.0416667

     Initial potential from superposition of free atoms

     starting charge  197.79099, renormalised to  198.00000

     negative rho (up, down):  4.791E-01 0.000E+00
     Starting wfcs are  162 randomized atomic wfcs

     Self-consistent Calculation

     iteration #  1     ecut=    40.00 Ry     beta= 0.70
     Davidson diagonalization with overlap
     ethr =  1.00E-02,  avg # of iterations =  2.5

     Threshold (ethr) on eigenvalues was too large:
     Diagonalizing with lowered threshold

     Davidson diagonalization with overlap
     ethr =  3.36E-04,  avg # of iterations =  2.6

     negative rho (up, down):  4.551E-01 0.000E+00

     total energy              =   -1836.56886085 Ry
     estimated scf accuracy    <       0.78623731 Ry

[...]

     total energy              =   -1836.58918959 Ry
     estimated scf accuracy    <       0.00000522 Ry

     iteration # 19     ecut=    40.00 Ry     beta= 0.70
     Davidson diagonalization with overlap
     ethr =  2.63E-09,  avg # of iterations =  3.8

[...]

     End of self-consistent calculation

          k = 0.0312 0.0241 0.0000 ( 13817 PWs)   bands (ev):

    -0.8012  -0.4594   0.0371   0.6128   1.1364   1.4543   1.5753   1.5791
     1.6241   1.8588   1.8742   2.0434   2.1315   2.1745   2.2403   2.3283
     2.4864   2.4943   2.6715   3.0592   3.2674   3.3512   3.5637   3.7277
     3.7576   3.7648   3.8463   3.8891   3.8930   3.9111   3.9265   3.9330
     3.9601   3.9676   3.9827   4.0195   4.0409   4.0740   4.0857   4.0979
     4.1257   4.1710   4.1717   4.1774   4.2869   4.3097   4.3284   4.3542
     4.3702   4.3842   4.4976   4.5284   4.7018   4.7152   4.9056   5.0357
     5.1381   5.1742   5.1891   5.2069   5.2694   5.2767   5.2976   5.3375
     5.3424   5.4121   5.5003   5.5192   5.6292   5.6553   5.6741   5.7691
     5.8057   5.8520   5.9557   5.9939   6.0224   6.0634   6.1342   6.1966
     6.2210   6.2524   6.2909   6.3354   6.3405   6.3737   6.4052   6.4246
     6.4515   6.4864   6.5348   6.5697   6.5919   6.6078   6.6195   6.6367
     6.7409   6.7543   7.1428   7.9029   8.3910   8.7350   8.9551   9.0739
     9.3101   9.3200   9.6870   9.9244  10.0168  11.1477  11.3460  11.4774
    11.8937  12.0533  12.6309  12.7710  13.5046  13.8071  13.9580

[...]

          k = 0.4688 0.2646 0.0000 ( 13756 PWs)   bands (ev):

     1.6018   1.6258   1.8492   1.8528   1.8612   1.8750   2.0324   2.0480
     2.1269   2.1275   2.1500   2.1785   2.2279   2.2465   2.3190   2.3238
     2.4182   2.4379   2.4933   2.5029   2.6690   2.6926   3.0688   3.0897
     3.4470   3.4619   3.6464   3.6630   3.7778   3.7976   3.8672   3.8745
     3.9501   3.9586   4.1032   4.1082   4.1830   4.1906   4.4169   4.4415
     4.4672   4.4954   4.5325   4.5376   4.8760   4.9019   4.9507   4.9705
     5.0057   5.0318   5.2549   5.2640   5.3421   5.3772   5.5069   5.5591
     5.7372   5.7485   5.8377   5.8546   5.9728   6.0046   6.1591   6.1664
     6.1913   6.2347   6.2490   6.2624   6.2836   6.3039   6.3355   6.3391
     6.3629   6.3686   6.3839   6.4206   6.4245   6.4447   6.4502   6.4631
     6.5056   6.5083   6.5536   6.5664   6.6386   6.6639   6.6912   6.6928
     6.8168   6.8438   7.6068   8.0147   8.0947   8.4061   8.5043   8.6116
     8.8627   9.0150   9.0923   9.2878   9.5380   9.6065   9.7689   9.8548
    10.0812  10.2591  10.8431  10.8631  11.1064  11.1654  11.2564  11.3466
    11.8402  11.8891  12.5204  12.5498  12.6240  12.8432  13.4044

     the Fermi energy is     8.2690 ev

!    total energy              =   -1836.58919872 Ry
     estimated scf accuracy    <       0.00000078 Ry
     smearing contrib. (-TS)   =       0.02388783 Ry
     internal energy E=F+TS    =   -1836.61308655 Ry

     The total energy is F=E-TS. E is the sum of the following terms:
     one-electron contribution =   -8474.81113527 Ry
     hartree contribution      =    4424.59210877 Ry
     xc contribution           =    -887.75206546 Ry
     ewald contribution        =    3101.35800540 Ry

     convergence has been achieved in  19 iterations

     negative rho (up, down):  4.893E-01 0.000E+00

     Forces acting on atoms (cartesian axes, Ry/au):

     atom    1 type  1   force =     0.00000000   -0.00165634    0.02658761
     atom    2 type  1   force =     0.00000000    0.00348693   -0.01639645
     atom    3 type  1   force =     0.00000000   -0.00173316   -0.00957575
     atom    4 type  1   force =     0.00000000    0.00057389   -0.00388542
     atom    5 type  1   force =     0.00000000   -0.00054380    0.00457128
     atom    6 type  1   force =     0.00000000    0.00029512   -0.00091713
     atom    7 type  1   force =     0.00000000   -0.00044594   -0.00067695
     atom    8 type  1   force =     0.00000000   -0.00018582    0.00038236
     atom    9 type  1   force =     0.00000000    0.00019164   -0.00058936
     atom   10 type  1   force =     0.00000000    0.00018817   -0.00038680
     atom   11 type  1   force =     0.00000000   -0.00019122    0.00058511
     atom   12 type  1   force =     0.00000000    0.00044636    0.00068185
     atom   13 type  1   force =     0.00000000   -0.00029554    0.00091981
     atom   14 type  1   force =     0.00000000   -0.00057265    0.00387934
     atom   15 type  1   force =     0.00000000    0.00054424   -0.00457831
     atom   16 type  1   force =     0.00000000   -0.00348544    0.01639328
     atom   17 type  1   force =     0.00000000    0.00173166    0.00957318
     atom   18 type  1   force =     0.00000000    0.00165189   -0.02656766

     Total force =     0.047403     Total SCF correction =     0.002245

     General routines

     Parallel routines

   This run was terminated on:   0:59:31   8Sep2021

   JOB DONE.