     Program PWSCF v.6.6 starts on  8Sep2021 at  5:20:47

     K-points division:     npool     =       2
     R & G space division:  proc/nbgrp/npool/nimage =      24
     Fft bands division:     nmany     =       1
     Reading input from ../inputs/input_ausurf_36

     Current dimensions of program PWSCF are:
     Max number of different atomic species (ntypx) = 10
     Max number of k-points (npk) =  40000
     Max angular momentum in pseudopotentials (lmaxx) =  3

     Subspace diagonalization in iterative solution of the eigenvalue problem:
     one sub-group per band group will be used

     Found symmetry operation: I + ( -0.5000  0.0000  0.0000)
     This is a supercell, fractional translations are disabled

     Title:
      Ausurf

     bravais-lattice index     =            8
     lattice parameter (alat)  =      11.1494  a.u.
     unit-cell volume          =    6444.4936 (a.u.)^3
     number of atoms/cell      =           36
     number of atomic types    =            1
     number of electrons       =       396.00
     number of Kohn-Sham states=          238
     kinetic-energy cutoff     =      40.0000  Ry
     charge density cutoff     =     350.0000  Ry
     convergence threshold     =      1.0E-06
     mixing beta               =       0.7000
     number of iterations used =            8  TF        mixing
     Exchange-correlation=  SLA  PW   PBE  PBE
                           (   1   4   3   4   0   0   0)

     celldm(1)=  11.149384  celldm(2)=   0.866025  celldm(3)=   5.369150
     celldm(4)=   0.000000  celldm(5)=   0.000000  celldm(6)=   0.000000

     crystal axes: (cart. coord. in units of alat)
               a(1) = (   1.000000   0.000000   0.000000 )
               a(2) = (   0.000000   0.866025   0.000000 )
               a(3) = (   0.000000   0.000000   5.369150 )

     reciprocal axes: (cart. coord. in units 2 pi/alat)
               b(1) = (  1.000000  0.000000  0.000000 )
               b(2) = (  0.000000  1.154701  0.000000 )
               b(3) = (  0.000000  0.000000  0.186249 )

     PseudoPot. # 1 for Au read from file:
     /marconi/home/userexternal/czeni000/dft_src/pseudo/Au.pbe-nd-van.UPF
     MD5 check sum: deb5c07af10777505a79e28f5b4b4115
     Pseudo is Ultrasoft + core correction, Zval = 11.0
     Generated by new atomic code, or converted to UPF format
     Using radial grid of  985 points,  3 beta functions with:
                l(1) =   1
                l(2) =   2
                l(3) =   2
     Q(r) pseudized with  8 coefficients,  rinner =    1.100   1.100   1.100
                                                       1.100   1.100

     atomic species   valence    mass     pseudopotential
        Au            11.00   196.96000     Au( 1.00)

      2 Sym. Ops. (no inversion) found

   Cartesian axes

     site n.     atom                  positions (alat units)
         1           Au  tau(   1) = (   0.0000000   0.0000000   0.0000000  )
         2           Au  tau(   2) = (   0.5000000   0.0000000   0.0000000  )
         3           Au  tau(   3) = (   0.2500000   0.1443376   0.4082483  )
         4           Au  tau(   4) = (   0.7500000   0.1443376   0.4082483  )
         5           Au  tau(   5) = (   0.5000000   0.5773503   0.4082483  )
         6           Au  tau(   6) = (   1.0000000   0.5773503   0.4082483  )
         7           Au  tau(   7) = (   0.5000000   0.2886751   0.8164966  )
         8           Au  tau(   8) = (   1.0000000   0.2886751   0.8164966  )
         9           Au  tau(   9) = (   0.2500000   0.7216878   0.8164966  )
        10           Au  tau(  10) = (   0.7500000   0.7216878   0.8164966  )
        11           Au  tau(  11) = (   0.0000000   0.0000000   1.2247449  )
        12           Au  tau(  12) = (   0.5000000   0.0000000   1.2247449  )
        13           Au  tau(  13) = (   0.2500000   0.4330127   1.2247449  )
        14           Au  tau(  14) = (   0.7500000   0.4330127   1.2247449  )
        15           Au  tau(  15) = (   1.0000000   0.5773503   1.6329932  )
        16           Au  tau(  16) = (   0.2500000   0.1443376   1.6329932  )
        17           Au  tau(  17) = (   0.7500000   0.1443376   1.6329932  )
        18           Au  tau(  18) = (   0.5000000   0.5773503   1.6329932  )
        19           Au  tau(  19) = (   0.5000000   0.2886751   2.0412415  )
        20           Au  tau(  20) = (   1.0000000   0.2886751   2.0412415  )
        21           Au  tau(  21) = (   0.2500000   0.7216878   2.0412415  )
        22           Au  tau(  22) = (   0.7500000   0.7216878   2.0412415  )
        23           Au  tau(  23) = (   0.0000000   0.0000000   2.4494897  )
        24           Au  tau(  24) = (   0.5000000   0.0000000   2.4494897  )
        25           Au  tau(  25) = (   0.2500000   0.4330127   2.4494897  )
        26           Au  tau(  26) = (   0.7500000   0.4330127   2.4494897  )
        27           Au  tau(  27) = (   0.2500000   0.1443376   2.8577380  )
        28           Au  tau(  28) = (   0.7500000   0.1443376   2.8577380  )
        29           Au  tau(  29) = (   0.5000000   0.5773503   2.8577380  )
        30           Au  tau(  30) = (   1.0000000   0.5773503   2.8577380  )
        31           Au  tau(  31) = (   0.5000000   0.2886751   3.2659863  )
        32           Au  tau(  32) = (   1.0000000   0.2886751   3.2659863  )
        33           Au  tau(  33) = (   0.2500000   0.7216878   3.2659863  )
        34           Au  tau(  34) = (   0.7500000   0.7216878   3.2659863  )
        35           Au  tau(  35) = (   0.2500000   0.4330127   3.6742346  )
        36           Au  tau(  36) = (   0.7500000   0.4330127   3.6742346  )

     number of k points=    36  Marzari-Vanderbilt smearing, width (Ry)=  0.0500
                       cart. coord. in units 2pi/alat
        k(    1) = (   0.0416667   0.0481125   0.0000000), wk =   0.0555556
        k(    2) = (   0.0416667   0.1443376   0.0000000), wk =   0.0555556
        k(    3) = (   0.0416667   0.2405626   0.0000000), wk =   0.0555556
        k(    4) = (   0.0416667   0.3367877   0.0000000), wk =   0.0555556
        k(    5) = (   0.0416667   0.4330127   0.0000000), wk =   0.0555556
        k(    6) = (   0.0416667   0.5292377   0.0000000), wk =   0.0555556
        k(    7) = (   0.1250000   0.0481125   0.0000000), wk =   0.0555556
        k(    8) = (   0.1250000   0.1443376   0.0000000), wk =   0.0555556
        k(    9) = (   0.1250000   0.2405626   0.0000000), wk =   0.0555556
        k(   10) = (   0.1250000   0.3367877   0.0000000), wk =   0.0555556
        k(   11) = (   0.1250000   0.4330127   0.0000000), wk =   0.0555556
        k(   12) = (   0.1250000   0.5292377   0.0000000), wk =   0.0555556
        k(   13) = (   0.2083333   0.0481125   0.0000000), wk =   0.0555556
        k(   14) = (   0.2083333   0.1443376   0.0000000), wk =   0.0555556
        k(   15) = (   0.2083333   0.2405626   0.0000000), wk =   0.0555556
        k(   16) = (   0.2083333   0.3367877   0.0000000), wk =   0.0555556
        k(   17) = (   0.2083333   0.4330127   0.0000000), wk =   0.0555556
        k(   18) = (   0.2083333   0.5292377   0.0000000), wk =   0.0555556
        k(   19) = (   0.2916667   0.0481125   0.0000000), wk =   0.0555556
        k(   20) = (   0.2916667   0.1443376   0.0000000), wk =   0.0555556
        k(   21) = (   0.2916667   0.2405626   0.0000000), wk =   0.0555556
        k(   22) = (   0.2916667   0.3367877   0.0000000), wk =   0.0555556
        k(   23) = (   0.2916667   0.4330127   0.0000000), wk =   0.0555556
        k(   24) = (   0.2916667   0.5292377   0.0000000), wk =   0.0555556
        k(   25) = (   0.3750000   0.0481125   0.0000000), wk =   0.0555556
        k(   26) = (   0.3750000   0.1443376   0.0000000), wk =   0.0555556
        k(   27) = (   0.3750000   0.2405626   0.0000000), wk =   0.0555556
        k(   28) = (   0.3750000   0.3367877   0.0000000), wk =   0.0555556
        k(   29) = (   0.3750000   0.4330127   0.0000000), wk =   0.0555556
        k(   30) = (   0.3750000   0.5292377   0.0000000), wk =   0.0555556
        k(   31) = (   0.4583333   0.0481125   0.0000000), wk =   0.0555556
        k(   32) = (   0.4583333   0.1443376   0.0000000), wk =   0.0555556
        k(   33) = (   0.4583333   0.2405626   0.0000000), wk =   0.0555556
        k(   34) = (   0.4583333   0.3367877   0.0000000), wk =   0.0555556
        k(   35) = (   0.4583333   0.4330127   0.0000000), wk =   0.0555556
        k(   36) = (   0.4583333   0.5292377   0.0000000), wk =   0.0555556

     Initial potential from superposition of free atoms

     starting charge  395.58197, renormalised to  396.00000

     negative rho (up, down):  9.582E-01 0.000E+00
     Starting wfcs are  324 randomized atomic wfcs

     Self-consistent Calculation

     iteration #  1     ecut=    40.00 Ry     beta= 0.70
     Davidson diagonalization with overlap
     ethr =  1.00E-02,  avg # of iterations =  2.6

     Threshold (ethr) on eigenvalues was too large:
     Diagonalizing with lowered threshold

     Davidson diagonalization with overlap
     ethr =  3.35E-04,  avg # of iterations =  2.6

     negative rho (up, down):  9.101E-01 0.000E+00

     total energy              =   -3673.13694193 Ry
     estimated scf accuracy    <       1.57348157 Ry

[...]

     total energy              =   -3673.17834581 Ry
     estimated scf accuracy    <       0.00000103 Ry

     iteration # 20     ecut=    40.00 Ry     beta= 0.70
     Davidson diagonalization with overlap
     ethr =  2.60E-10,  avg # of iterations =  4.1

[...]

     End of self-consistent calculation

          k = 0.0417 0.0481 0.0000 ( 27553 PWs)   bands (ev):

    -0.8130  -0.4713   0.0254   0.6015   1.1251   1.4434   1.5649   1.5684
     1.6142   1.8505   1.8642   2.0337   2.1254   2.1636   2.2293   2.2806
     2.3229   2.3502   2.3810   2.3915   2.4407   2.4759   2.4837   2.5151
     2.5463   2.5802   2.6415   2.6673   2.7237   2.7591   2.7907   2.8247
     2.8573   2.9403   2.9794   3.0562   3.0815   3.1172   3.1761   3.1947
     3.2140   3.2337   3.2618   3.3218   3.3319   3.3443   3.3607   3.3758
     3.4825   3.5091   3.5480   3.5630   3.5671   3.5868   3.6076   3.6907
     3.7320   3.7326   3.7656   3.7743   3.7941   3.8282   3.8526   3.8935
     3.8952   3.9021   3.9073   3.9192   3.9347   3.9388   3.9549   3.9611
     3.9635   3.9878   3.9942   4.0118   4.0426   4.0732   4.0802   4.0954
     4.0992   4.1178   4.1400   4.1645   4.1655   4.1744   4.1754   4.2067
     4.3004   4.3059   4.3147   4.3185   4.3330   4.3481   4.3674   4.3705
     4.3829   4.3945   4.5099   4.5128   4.5189   4.5251   4.6991   4.7088
     4.7254   4.7468   4.7648   4.7728   4.8822   4.8920   4.9030   4.9914
     5.0353   5.0607   5.1116   5.1243   5.1516   5.1907   5.2013   5.2235
     5.2294   5.2362   5.2703   5.2754   5.2830   5.3191   5.3323   5.3344
     5.3403   5.3474   5.4068   5.4282   5.4319   5.4609   5.4888   5.5166
     5.5457   5.5551   5.6415   5.6481   5.6787   5.7000   5.7304   5.7908
     5.8308   5.8603   5.8977   5.9257   5.9600   5.9966   6.0133   6.0978
     6.1183   6.1341   6.1659   6.1963   6.2073   6.2203   6.2347   6.2531
     6.3037   6.3279   6.3460   6.3608   6.3716   6.3778   6.3923   6.3981
     6.3990   6.4318   6.4347   6.4386   6.4652   6.4866   6.5348   6.5461
     6.5487   6.5758   6.5962   6.5993   6.6013   6.6087   6.6337   6.6386
     6.7570   6.7610   6.9130   6.9135   7.0799   7.6697   7.7970   7.8521
     8.0477   8.2769   8.3596   8.4535   8.4654   8.7137   8.7921   8.9272
     9.0404   9.0560   9.2728   9.2777   9.2967   9.6611   9.7600   9.9042
     9.9110   9.9943  10.5296  10.6513  11.1449  11.2646  11.3376  11.3826
    11.4669  11.8214  11.8827  12.0476  12.0969  12.3382  12.6162  12.6192
    12.6452  12.7766  12.8749  13.2843  13.3837  13.4640  13.4912  13.7255
    13.8083  13.8832  13.9571  13.9952  13.9963  14.0079

[...]

          k = 0.4583 0.5292 0.0000 ( 27488 PWs)   bands (ev):

     1.3567   1.5098   1.5733   1.7260   1.7269   1.7934   1.8571   1.8949
     1.9649   1.9991   2.0883   2.1577   2.1664   2.1763   2.2775   2.3045
     2.3495   2.4502   2.4523   2.5109   2.5580   2.5812   2.5933   2.6143
     2.6541   2.7198   2.7199   2.7476   2.7782   2.7938   2.8125   2.8509
     2.8554   2.8986   2.9209   2.9295   2.9842   2.9975   3.0238   3.0593
     3.0934   3.1200   3.1379   3.2088   3.2372   3.2818   3.2842   3.3002
     3.3263   3.3366   3.4166   3.4278   3.4632   3.4789   3.5267   3.5334
     3.5801   3.6090   3.6326   3.6480   3.6791   3.7092   3.7494   3.7620
     3.7760   3.8140   3.8189   3.8736   3.8739   3.9206   3.9328   3.9342
     3.9835   3.9864   4.0057   4.0218   4.0522   4.0645   4.1049   4.1141
     4.1298   4.1571   4.1665   4.1755   4.1786   4.1942   4.2152   4.2566
     4.2612   4.2654   4.2961   4.3225   4.3595   4.3697   4.3791   4.3996
     4.4015   4.4515   4.5085   4.5383   4.5484   4.5688   4.5791   4.6450
     4.6875   4.7213   4.7490   4.8256   4.8423   4.9101   4.9108   4.9354
     4.9564   4.9732   5.0193   5.0301   5.0566   5.0698   5.1384   5.1520
     5.1818   5.2159   5.2317   5.2497   5.2650   5.2856   5.2996   5.3200
     5.3221   5.3522   5.4070   5.4169   5.4195   5.4241   5.4787   5.5475
     5.5560   5.5769   5.6007   5.6598   5.6608   5.6767   5.7095   5.7252
     5.7292   5.7479   5.7611   5.8053   5.8216   5.8671   5.8826   5.8893
     5.9170   5.9409   5.9431   5.9578   5.9828   6.0114   6.0284   6.0518
     6.0727   6.0861   6.1011   6.1224   6.1293   6.1550   6.1700   6.1786
     6.2139   6.2351   6.2391   6.2598   6.2745   6.2768   6.2830   6.2946
     6.3193   6.3460   6.3476   6.3798   6.3881   6.3965   6.4046   6.4094
     6.4635   6.4701   6.4870   6.5289   6.5940   6.6051   6.6690   6.7171
     6.7857   6.7993   6.8685   6.9981   7.1347   7.2657   7.3381   7.6222
     7.8921   8.0546   8.0796   8.4062   8.7456   8.9186   8.9785   9.2565
     9.6861   9.8790   9.9777  10.2001  10.7059  10.9389  10.9854  11.2425
    12.2162  12.3722  12.5407  12.7436  13.0804  13.3228  13.4673  13.8419
    14.1439  14.1700  14.2821  14.5519  14.6908  14.8420  14.9120  14.9329
    15.0340  15.1183  15.2612  15.3208  15.3587  15.4988

     the Fermi energy is     8.2691 ev

!    total energy              =   -3673.17834920 Ry
     estimated scf accuracy    <       0.00000044 Ry
     smearing contrib. (-TS)   =       0.04746020 Ry
     internal energy E=F+TS    =   -3673.22580940 Ry

     The total energy is F=E-TS. E is the sum of the following terms:
     one-electron contribution =  -16949.69208899 Ry
     hartree contribution      =    8849.25406652 Ry
     xc contribution           =   -1775.50379774 Ry
     ewald contribution        =    6202.71601081 Ry

     convergence has been achieved in  20 iterations

     negative rho (up, down):  9.786E-01 0.000E+00

     Forces acting on atoms (cartesian axes, Ry/au):

     atom    1 type  1   force =     0.00000000   -0.00165723    0.02667603
     atom    2 type  1   force =     0.00000000   -0.00165750    0.02667629
     atom    3 type  1   force =    -0.00000002    0.00337022   -0.01670693
     atom    4 type  1   force =     0.00000002    0.00337022   -0.01670693
     atom    5 type  1   force =     0.00000000   -0.00161080   -0.00980860
     atom    6 type  1   force =     0.00000000   -0.00161072   -0.00980871
     atom    7 type  1   force =     0.00000000    0.00056411   -0.00397073
     atom    8 type  1   force =     0.00000000    0.00056412   -0.00397078
     atom    9 type  1   force =    -0.00000001   -0.00053647    0.00446033
     atom   10 type  1   force =     0.00000001   -0.00053647    0.00446033
     atom   11 type  1   force =     0.00000000    0.00028736   -0.00086896
     atom   12 type  1   force =     0.00000000    0.00028730   -0.00086882
     atom   13 type  1   force =    -0.00000000   -0.00045039   -0.00062917
     atom   14 type  1   force =     0.00000000   -0.00045039   -0.00062917
     atom   15 type  1   force =     0.00000000    0.00019629   -0.00061610
     atom   16 type  1   force =    -0.00000001   -0.00018505    0.00035690
     atom   17 type  1   force =     0.00000001   -0.00018505    0.00035690
     atom   18 type  1   force =     0.00000000    0.00019629   -0.00061597
     atom   19 type  1   force =     0.00000000    0.00018698   -0.00036022
     atom   20 type  1   force =     0.00000000    0.00018691   -0.00036014
     atom   21 type  1   force =    -0.00000005   -0.00019561    0.00061371
     atom   22 type  1   force =     0.00000005   -0.00019561    0.00061371
     atom   23 type  1   force =     0.00000000    0.00045105    0.00063371
     atom   24 type  1   force =     0.00000000    0.00045089    0.00063368
     atom   25 type  1   force =    -0.00000005   -0.00028748    0.00087116
     atom   26 type  1   force =     0.00000005   -0.00028748    0.00087116
     atom   27 type  1   force =    -0.00000008   -0.00056275    0.00396328
     atom   28 type  1   force =     0.00000008   -0.00056275    0.00396328
     atom   29 type  1   force =     0.00000000    0.00053752   -0.00446528
     atom   30 type  1   force =     0.00000000    0.00053744   -0.00446531
     atom   31 type  1   force =     0.00000000   -0.00336838    0.01670603
     atom   32 type  1   force =     0.00000000   -0.00336860    0.01670599
     atom   33 type  1   force =     0.00000000    0.00160873    0.00980766
     atom   34 type  1   force =    -0.00000000    0.00160873    0.00980766
     atom   35 type  1   force =     0.00000016    0.00165228   -0.02666299
     atom   36 type  1   force =    -0.00000016    0.00165228   -0.02666299

     Total force =     0.067573     Total SCF correction =     0.003248

     General routines

     Parallel routines

   This run was terminated on:   5:26:10   8Sep2021

   JOB DONE.