     Program PWSCF v.6.6 starts on  8Sep2021 at  5:41:36

     R & G space division:  proc/nbgrp/npool/nimage =      12
     Fft bands division:     nmany     =       1
     Reading input from ../inputs/input_ausurf_72

     Current dimensions of program PWSCF are:
     Max number of different atomic species (ntypx) = 10
     Max number of k-points (npk) =  40000
     Max angular momentum in pseudopotentials (lmaxx) =  3

     Subspace diagonalization in iterative solution of the eigenvalue problem:
     one sub-group per band group will be used

     Found symmetry operation: I + ( -0.5000  0.0000  0.0000)
     This is a supercell, fractional translations are disabled

     Title:
      Ausurf

     bravais-lattice index     =            8
     lattice parameter (alat)  =      11.1494  a.u.
     unit-cell volume          =   12888.9871 (a.u.)^3
     number of atoms/cell      =           72
     number of atomic types    =            1
     number of electrons       =       792.00
     number of Kohn-Sham states=          475
     kinetic-energy cutoff     =      40.0000  Ry
     charge density cutoff     =     350.0000  Ry
     convergence threshold     =      1.0E-06
     mixing beta               =       0.7000
     number of iterations used =            8  TF        mixing
     Exchange-correlation=  SLA  PW   PBE  PBE
                           (   1   4   3   4   0   0   0)

     celldm(1)=  11.149384  celldm(2)=   1.732051  celldm(3)=   5.369150
     celldm(4)=   0.000000  celldm(5)=   0.000000  celldm(6)=   0.000000

     crystal axes: (cart. coord. in units of alat)
               a(1) = (   1.000000   0.000000   0.000000 )
               a(2) = (   0.000000   1.732051   0.000000 )
               a(3) = (   0.000000   0.000000   5.369150 )

     reciprocal axes: (cart. coord. in units 2 pi/alat)
               b(1) = (  1.000000  0.000000  0.000000 )
               b(2) = (  0.000000  0.577350  0.000000 )
               b(3) = (  0.000000  0.000000  0.186249 )

     PseudoPot. # 1 for Au read from file:
     /marconi/home/userexternal/czeni000/dft_src/pseudo/Au.pbe-nd-van.UPF
     MD5 check sum: deb5c07af10777505a79e28f5b4b4115
     Pseudo is Ultrasoft + core correction, Zval = 11.0
     Generated by new atomic code, or converted to UPF format
     Using radial grid of  985 points,  3 beta functions with:
                l(1) =   1
                l(2) =   2
                l(3) =   2
     Q(r) pseudized with  8 coefficients,  rinner =    1.100   1.100   1.100
                                                       1.100   1.100

     atomic species   valence    mass     pseudopotential
        Au            11.00   196.96000     Au( 1.00)

      2 Sym. Ops. (no inversion) found

   Cartesian axes

     site n.     atom                  positions (alat units)
         1           Au  tau(   1) = (   0.0000000   0.0000000   0.0000000  )
         2           Au  tau(   2) = (   0.5000000   0.0000000   0.0000000  )
         3           Au  tau(   3) = (   0.0000000   0.8660254   0.0000000  )
         4           Au  tau(   4) = (   0.5000000   0.8660254   0.0000000  )
         5           Au  tau(   5) = (   0.2500000   0.1443376   0.4082483  )
         6           Au  tau(   6) = (   0.7500000   0.1443376   0.4082483  )
         7           Au  tau(   7) = (   0.2500000   1.0103631   0.4082483  )
         8           Au  tau(   8) = (   0.7500000   1.0103631   0.4082483  )
         9           Au  tau(   9) = (   0.5000000   0.5773503   0.4082483  )
        10           Au  tau(  10) = (   0.5000000   1.4433756   0.4082483  )
        11           Au  tau(  11) = (   1.0000000   0.5773503   0.4082483  )
        12           Au  tau(  12) = (   1.0000000   1.4433756   0.4082483  )
        13           Au  tau(  13) = (   0.5000000   0.2886751   0.8164966  )
        14           Au  tau(  14) = (   1.0000000   0.2886751   0.8164966  )
        15           Au  tau(  15) = (   0.2500000   0.7216878   0.8164966  )
        16           Au  tau(  16) = (   0.7500000   0.7216878   0.8164966  )
        17           Au  tau(  17) = (   0.5000000   1.1547005   0.8164966  )
        18           Au  tau(  18) = (   1.0000000   1.1547005   0.8164966  )
        19           Au  tau(  19) = (   0.2500000   1.5877132   0.8164966  )
        20           Au  tau(  20) = (   0.7500000   1.5877132   0.8164966  )
        21           Au  tau(  21) = (   0.0000000   0.0000000   1.2247449  )
        22           Au  tau(  22) = (   0.5000000   0.0000000   1.2247449  )
        23           Au  tau(  23) = (   0.2500000   0.4330127   1.2247449  )
        24           Au  tau(  24) = (   0.5000000   0.8660254   1.2247449  )
        25           Au  tau(  25) = (   0.2500000   1.2990381   1.2247449  )
        26           Au  tau(  26) = (   0.7500000   0.4330127   1.2247449  )
        27           Au  tau(  27) = (   0.7500000   1.2990381   1.2247449  )
        28           Au  tau(  28) = (   0.0000000   0.8660254   1.2247449  )
        29           Au  tau(  29) = (   0.2500000   1.0103631   1.6329932  )
        30           Au  tau(  30) = (   1.0000000   0.5773503   1.6329932  )
        31           Au  tau(  31) = (   0.2500000   0.1443376   1.6329932  )
        32           Au  tau(  32) = (   0.7500000   0.1443376   1.6329932  )
        33           Au  tau(  33) = (   0.7500000   1.0103631   1.6329932  )
        34           Au  tau(  34) = (   0.5000000   0.5773503   1.6329932  )
        35           Au  tau(  35) = (   0.5000000   1.4433756   1.6329932  )
        36           Au  tau(  36) = (   1.0000000   1.4433756   1.6329932  )
        37           Au  tau(  37) = (   0.5000000   0.2886751   2.0412415  )
        38           Au  tau(  38) = (   1.0000000   0.2886751   2.0412415  )
        39           Au  tau(  39) = (   0.2500000   0.7216878   2.0412415  )
        40           Au  tau(  40) = (   0.7500000   0.7216878   2.0412415  )
        41           Au  tau(  41) = (   0.7500000   1.5877132   2.0412415  )
        42           Au  tau(  42) = (   0.5000000   1.1547005   2.0412415  )
        43           Au  tau(  43) = (   1.0000000   1.1547005   2.0412415  )
        44           Au  tau(  44) = (   0.2500000   1.5877132   2.0412415  )
        45           Au  tau(  45) = (   0.0000000   0.0000000   2.4494897  )
        46           Au  tau(  46) = (   0.0000000   0.8660254   2.4494897  )
        47           Au  tau(  47) = (   0.5000000   0.0000000   2.4494897  )
        48           Au  tau(  48) = (   0.5000000   0.8660254   2.4494897  )
        49           Au  tau(  49) = (   0.2500000   0.4330127   2.4494897  )
        50           Au  tau(  50) = (   0.7500000   0.4330127   2.4494897  )
        51           Au  tau(  51) = (   0.2500000   1.2990381   2.4494897  )
        52           Au  tau(  52) = (   0.7500000   1.2990381   2.4494897  )
        53           Au  tau(  53) = (   1.0000000   1.4433756   2.8577380  )
        54           Au  tau(  54) = (   0.2500000   0.1443376   2.8577380  )
        55           Au  tau(  55) = (   0.2500000   1.0103631   2.8577380  )
        56           Au  tau(  56) = (   0.7500000   0.1443376   2.8577380  )
        57           Au  tau(  57) = (   0.7500000   1.0103631   2.8577380  )
        58           Au  tau(  58) = (   0.5000000   0.5773503   2.8577380  )
        59           Au  tau(  59) = (   0.5000000   1.4433756   2.8577380  )
        60           Au  tau(  60) = (   1.0000000   0.5773503   2.8577380  )
        61           Au  tau(  61) = (   0.7500000   1.5877132   3.2659863  )
        62           Au  tau(  62) = (   0.5000000   0.2886751   3.2659863  )
        63           Au  tau(  63) = (   0.5000000   1.1547005   3.2659863  )
        64           Au  tau(  64) = (   1.0000000   0.2886751   3.2659863  )
        65           Au  tau(  65) = (   1.0000000   1.1547005   3.2659863  )
        66           Au  tau(  66) = (   0.2500000   0.7216878   3.2659863  )
        67           Au  tau(  67) = (   0.2500000   1.5877132   3.2659863  )
        68           Au  tau(  68) = (   0.7500000   0.7216878   3.2659863  )
        69           Au  tau(  69) = (   0.2500000   0.4330127   3.6742346  )
        70           Au  tau(  70) = (   0.2500000   1.2990381   3.6742346  )
        71           Au  tau(  71) = (   0.7500000   0.4330127   3.6742346  )
        72           Au  tau(  72) = (   0.7500000   1.2990381   3.6742346  )

     number of k points=    18  Marzari-Vanderbilt smearing, width (Ry)=  0.0500
                       cart. coord. in units 2pi/alat
        k(    1) = (   0.0416667   0.0481125   0.0000000), wk =   0.1111111
        k(    2) = (   0.0416667   0.1443376   0.0000000), wk =   0.1111111
        k(    3) = (   0.0416667   0.2405626   0.0000000), wk =   0.1111111
        k(    4) = (   0.1250000   0.0481125   0.0000000), wk =   0.1111111
        k(    5) = (   0.1250000   0.1443376   0.0000000), wk =   0.1111111
        k(    6) = (   0.1250000   0.2405626   0.0000000), wk =   0.1111111
        k(    7) = (   0.2083333   0.0481125   0.0000000), wk =   0.1111111
        k(    8) = (   0.2083333   0.1443376   0.0000000), wk =   0.1111111
        k(    9) = (   0.2083333   0.2405626   0.0000000), wk =   0.1111111
        k(   10) = (   0.2916667   0.0481125   0.0000000), wk =   0.1111111
        k(   11) = (   0.2916667   0.1443376   0.0000000), wk =   0.1111111
        k(   12) = (   0.2916667   0.2405626   0.0000000), wk =   0.1111111
        k(   13) = (   0.3750000   0.0481125   0.0000000), wk =   0.1111111
        k(   14) = (   0.3750000   0.1443376   0.0000000), wk =   0.1111111
        k(   15) = (   0.3750000   0.2405626   0.0000000), wk =   0.1111111
        k(   16) = (   0.4583333   0.0481125   0.0000000), wk =   0.1111111
        k(   17) = (   0.4583333   0.1443376   0.0000000), wk =   0.1111111
        k(   18) = (   0.4583333   0.2405626   0.0000000), wk =   0.1111111

     Initial potential from superposition of free atoms

     starting charge  791.16394, renormalised to  792.00000

     negative rho (up, down):  1.916E+00 0.000E+00
     Starting wfcs are  648 randomized atomic wfcs

     Self-consistent Calculation

     iteration #  1     ecut=    40.00 Ry     beta= 0.70
     Davidson diagonalization with overlap
     ethr =  1.00E-02,  avg # of iterations =  2.6

     Threshold (ethr) on eigenvalues was too large:
     Diagonalizing with lowered threshold

     Davidson diagonalization with overlap
     ethr =  3.34E-04,  avg # of iterations =  2.7

     negative rho (up, down):  1.820E+00 0.000E+00

     total energy              =   -7346.27283404 Ry
     estimated scf accuracy    <       3.14731594 Ry

[...]

     iteration #  6     ecut=    40.00 Ry     beta= 0.70
     Davidson diagonalization with overlap
     c_bands:  1 eigenvalues not converged
     ethr =  3.13E-05,  avg # of iterations =  8.3

[...]

     iteration # 19     ecut=    40.00 Ry     beta= 0.70
     Davidson diagonalization with overlap
     c_bands:  1 eigenvalues not converged
     ethr =  6.37E-09,  avg # of iterations =  7.8

[...]

     total energy              =   -7346.35669861 Ry
     estimated scf accuracy    <       0.00000204 Ry

     iteration # 22     ecut=    40.00 Ry     beta= 0.70
     Davidson diagonalization with overlap
     ethr =  2.57E-10,  avg # of iterations =  2.1

[...]

     End of self-consistent calculation

          k = 0.0417 0.0481 0.0000 ( 55126 PWs)   bands (ev):

    -0.8130  -0.4714   0.0254   0.5490   0.6014   0.8361   0.9649   1.1250
     1.2159   1.2463   1.4434   1.5572   1.5648   1.5683   1.6035   1.6142
     1.6194   1.7228   1.8475   1.8505   1.8521   1.8545   1.8641   1.8682
     1.9217   2.0302   2.0336   2.0405   2.1219   2.1226   2.1253   2.1515
     2.1519   2.1635   2.1714   2.2257   2.2292   2.2381   2.2441   2.2805
     2.3147   2.3179   2.3228   2.3337   2.3502   2.3810   2.3915   2.4115
     2.4166   2.4301   2.4406   2.4759   2.4836   2.4886   2.4953   2.5150
     2.5244   2.5462   2.5801   2.6021   2.6233   2.6415   2.6672   2.6687
     2.6846   2.7237   2.7340   2.7590   2.7689   2.7906   2.8246   2.8573
     2.9325   2.9403   2.9612   2.9793   3.0561   3.0694   3.0814   3.0834
     3.1170   3.1479   3.1695   3.1760   3.1946   3.2139   3.2336   3.2615
     3.2910   3.3217   3.3245   3.3318   3.3440   3.3606   3.3694   3.3757
     3.4218   3.4495   3.4593   3.4756   3.4824   3.5090   3.5120   3.5479
     3.5628   3.5669   3.5868   3.6018   3.6075   3.6211   3.6468   3.6481
     3.6594   3.6846   3.6907   3.7319   3.7326   3.7655   3.7742   3.7788
     3.7920   3.7940   3.8014   3.8281   3.8524   3.8649   3.8696   3.8697
     3.8935   3.8952   3.9020   3.9072   3.9192   3.9260   3.9345   3.9388
     3.9494   3.9549   3.9552   3.9610   3.9635   3.9802   3.9877   3.9940
     4.0117   4.0261   4.0425   4.0731   4.0800   4.0867   4.0953   4.0991
     4.1079   4.1101   4.1177   4.1336   4.1399   4.1644   4.1654   4.1656
     4.1743   4.1753   4.1831   4.1889   4.1905   4.2007   4.2066   4.2184
     4.2377   4.2548   4.3003   4.3057   4.3145   4.3184   4.3218   4.3329
     4.3480   4.3578   4.3673   4.3704   4.3806   4.3828   4.3944   4.4297
     4.4314   4.4334   4.4525   4.4660   4.4686   4.4916   4.5097   4.5127
     4.5188   4.5250   4.5282   4.5335   4.5362   4.5973   4.6325   4.6591
     4.6926   4.6991   4.7085   4.7183   4.7252   4.7466   4.7514   4.7645
     4.7727   4.8136   4.8720   4.8810   4.8820   4.8919   4.8961   4.8990
     4.9028   4.9298   4.9597   4.9751   4.9810   4.9913   4.9990   5.0117
     5.0293   5.0307   5.0352   5.0605   5.0821   5.1087   5.1115   5.1243
     5.1281   5.1514   5.1540   5.1906   5.2012   5.2160   5.2235   5.2293
     5.2316   5.2362   5.2606   5.2614   5.2662   5.2702   5.2754   5.2829
     5.2962   5.3189   5.3270   5.3322   5.3343   5.3402   5.3472   5.3511
     5.3543   5.3752   5.4065   5.4198   5.4280   5.4315   5.4607   5.4792
     5.4887   5.4961   5.5163   5.5164   5.5399   5.5454   5.5510   5.5549
     5.5725   5.6062   5.6110   5.6413   5.6479   5.6785   5.6970   5.6999
     5.7302   5.7481   5.7566   5.7622   5.7906   5.8116   5.8306   5.8486
     5.8600   5.8654   5.8929   5.8974   5.9060   5.9254   5.9599   5.9770
     5.9780   5.9954   5.9964   6.0131   6.0742   6.0947   6.0977   6.1171
     6.1181   6.1338   6.1428   6.1658   6.1752   6.1795   6.1961   6.2013
     6.2069   6.2199   6.2314   6.2338   6.2346   6.2529   6.2597   6.2670
     6.2938   6.3036   6.3138   6.3278   6.3361   6.3459   6.3459   6.3475
     6.3608   6.3715   6.3761   6.3776   6.3787   6.3903   6.3922   6.3925
     6.3957   6.3979   6.3989   6.4285   6.4317   6.4324   6.4346   6.4385
     6.4516   6.4562   6.4651   6.4677   6.4864   6.5117   6.5125   6.5345
     6.5459   6.5485   6.5645   6.5713   6.5753   6.5876   6.5882   6.5959
     6.5991   6.6011   6.6085   6.6334   6.6383   6.6526   6.6704   6.6968
     6.6975   6.7194   6.7250   6.7567   6.7607   6.8339   6.8531   6.8763
     6.9126   6.9131   6.9557   7.0798   7.5266   7.6697   7.7395   7.7968
     7.7988   7.8520   8.0375   8.0476   8.1462   8.2408   8.2769   8.3595
     8.4533   8.4653   8.5506   8.5854   8.7136   8.7752   8.7832   8.7920
     8.9271   8.9468   8.9507   9.0403   9.0559   9.1042   9.1964   9.2727
     9.2776   9.2968   9.3530   9.4610   9.5884   9.6441   9.6611   9.7174
     9.7598   9.8306   9.9041   9.9108   9.9360   9.9942   9.9979  10.0743
    10.5294  10.6511  10.8570  10.8657  10.9821  11.0638  11.0766  11.1449
    11.2293  11.2591  11.2644  11.3281  11.3376  11.3824  11.4668  11.7283
    11.8213  11.8825  11.9530  12.0479  12.0589  12.0968  12.3380  12.3801
    12.4489  12.5511  12.6092  12.6161  12.6198  12.6451  12.7902  12.8467
    12.8748  13.2445  13.2843  13.3196  13.3836  13.4640  13.4916  13.6761
    13.6823  13.7254  13.8099  13.8227  13.8831  13.9531  13.9607  13.9952
    13.9965  14.0022  14.0078

[...]

          k = 0.4583 0.2406 0.0000 ( 55107 PWs)   bands (ev):

     0.4899   0.7194   0.7832   0.8244   0.9951   1.0078   1.0909   1.2050
     1.2568   1.3853   1.4637   1.5911   1.6938   1.8290   1.8812   1.9454
     2.1291   2.2124   2.2302   2.2342   2.2905   2.3018   2.3253   2.3294
     2.3448   2.3579   2.3764   2.3991   2.4063   2.4122   2.4230   2.4262
     2.4281   2.4602   2.4838   2.4856   2.5135   2.5375   2.5646   2.5757
     2.5800   2.5880   2.5981   2.5985   2.6207   2.6351   2.6613   2.6941
     2.7148   2.7165   2.7267   2.7429   2.7450   2.7600   2.7756   2.7809
     2.8065   2.8146   2.8344   2.8370   2.8554   2.8594   2.8608   2.9117
     2.9196   2.9372   2.9567   3.0112   3.0219   3.0565   3.0675   3.0803
     3.0827   3.0850   3.1109   3.1307   3.1429   3.1801   3.1965   3.1988
     3.2088   3.2123   3.2232   3.2249   3.2282   3.2628   3.2673   3.3166
     3.3245   3.3291   3.3474   3.3606   3.3732   3.3732   3.3758   3.4096
     3.4138   3.4346   3.4388   3.4389   3.4642   3.4731   3.4747   3.4859
     3.4961   3.5062   3.5149   3.5186   3.5381   3.5389   3.5579   3.5709
     3.5764   3.5919   3.5982   3.6016   3.6210   3.6244   3.6252   3.6259
     3.6619   3.6933   3.6961   3.7150   3.7189   3.7209   3.7304   3.7343
     3.7458   3.7769   3.7904   3.8107   3.8252   3.8493   3.8556   3.8750
     3.9043   3.9165   3.9225   3.9245   3.9307   3.9784   3.9923   4.0056
     4.0125   4.0283   4.0390   4.0391   4.0685   4.0857   4.0912   4.0969
     4.0978   4.1141   4.1202   4.1296   4.1351   4.1424   4.1623   4.1638
     4.1649   4.1710   4.1783   4.1811   4.1971   4.1987   4.1994   4.1997
     4.2101   4.2141   4.2186   4.2308   4.2316   4.2318   4.2372   4.2387
     4.2502   4.2579   4.2677   4.2784   4.2826   4.3152   4.3280   4.3446
     4.3559   4.3625   4.3719   4.3893   4.4065   4.4266   4.4295   4.4343
     4.4624   4.4630   4.4841   4.4911   4.5224   4.5407   4.5500   4.5661
     4.5770   4.5908   4.6078   4.6396   4.6475   4.6521   4.6668   4.6843
     4.6859   4.6991   4.7036   4.7446   4.7456   4.7649   4.7788   4.7974
     4.8058   4.8112   4.8235   4.8281   4.8300   4.8585   4.8722   4.8738
     4.8799   4.8859   4.8883   4.8945   4.9185   4.9463   4.9534   4.9647
     4.9812   4.9913   4.9930   5.0146   5.0228   5.0340   5.0423   5.0586
     5.0606   5.0733   5.0783   5.0865   5.1211   5.1335   5.1352   5.1486
     5.1512   5.1552   5.1611   5.1618   5.1853   5.1901   5.1908   5.2043
     5.2070   5.2220   5.2285   5.2320   5.2391   5.2424   5.2462   5.2585
     5.2645   5.2834   5.2886   5.3120   5.3163   5.3273   5.3312   5.3446
     5.3557   5.3761   5.3811   5.3951   5.3952   5.3989   5.4130   5.4318
     5.4342   5.4461   5.4563   5.4577   5.4593   5.4742   5.4745   5.4950
     5.5088   5.5185   5.5322   5.5360   5.5554   5.5643   5.5679   5.5772
     5.5938   5.6046   5.6219   5.6453   5.6454   5.6472   5.6584   5.6787
     5.6858   5.7123   5.7299   5.7430   5.7494   5.7628   5.7692   5.7723
     5.7766   5.7981   5.8071   5.8105   5.8329   5.8582   5.8600   5.8764
     5.9022   5.9107   5.9466   5.9471   5.9581   5.9634   5.9687   5.9775
     6.0529   6.0564   6.0731   6.0734   6.0890   6.1074   6.1078   6.1085
     6.1231   6.1394   6.1403   6.1504   6.1576   6.1654   6.1819   6.1860
     6.2138   6.2189   6.2333   6.2468   6.2976   6.3309   6.3374   6.3453
     6.3621   6.3650   6.3763   6.3832   6.3850   6.3864   6.3942   6.4091
     6.4163   6.4484   6.4526   6.4779   6.4780   6.4784   6.5015   6.5174
     6.5363   6.5465   6.5481   6.5651   6.6059   6.6347   6.6371   6.6372
     6.6817   6.6917   6.6970   6.7463   6.9340   7.0626   7.1469   7.2575
     7.5254   7.5291   7.5832   7.6861   7.8061   7.8153   7.8493   7.8703
     8.0011   8.1132   8.1925   8.2136   8.2979   8.3494   8.4063   8.4239
     8.5149   8.6486   8.6487   8.6700   8.7881   8.9664   9.0636   9.1464
     9.2312   9.2985   9.3146   9.4963   9.5762   9.6973   9.8240  10.0040
    10.2243  10.2644  10.2982  10.3937  10.5521  10.5644  10.6808  10.9349
    11.0861  11.2965  11.4510  11.5487  11.6655  11.8309  11.9312  12.0007
    12.0633  12.2786  12.3151  12.3561  12.7413  12.7790  12.8734  12.8935
    12.9050  13.0225  13.0936  13.1006  13.1796  13.2278  13.2494  13.2598
    13.2952  13.3790  13.4405  13.4718  13.5042  13.5235  13.7601  13.7660
    13.8182  13.9333  13.9337  13.9392  14.0280  14.0492  14.0697  14.1279
    14.1631  14.2311  14.2433  14.3238  14.3737  14.4019  14.4230  14.5571
    14.6072  14.7686  14.8815

     the Fermi energy is     8.2690 ev

!    total energy              =   -7346.35669904 Ry
     estimated scf accuracy    <       0.00000010 Ry
     smearing contrib. (-TS)   =       0.09485288 Ry
     internal energy E=F+TS    =   -7346.45155192 Ry

     The total energy is F=E-TS. E is the sum of the following terms:
     one-electron contribution =  -33899.31036019 Ry
     hartree contribution      =   17698.43518769 Ry
     xc contribution           =   -3551.00839207 Ry
     ewald contribution        =   12405.43201265 Ry

     convergence has been achieved in  22 iterations

     negative rho (up, down):  1.957E+00 0.000E+00

     Forces acting on atoms (cartesian axes, Ry/au):

     atom    1 type  1   force =     0.00000000   -0.00165380    0.02670122
     atom    2 type  1   force =     0.00000000   -0.00165382    0.02670130
     atom    3 type  1   force =     0.00000000   -0.00165366    0.02670086
     atom    4 type  1   force =     0.00000000   -0.00165373    0.02670116
     atom    5 type  1   force =    -0.00000001    0.00336784   -0.01660792
     atom    6 type  1   force =     0.00000001    0.00336784   -0.01660792
     atom    7 type  1   force =    -0.00000004    0.00336796   -0.01660790
     atom    8 type  1   force =     0.00000004    0.00336796   -0.01660790
     atom    9 type  1   force =     0.00000000   -0.00160715   -0.00970301
     atom   10 type  1   force =     0.00000000   -0.00160697   -0.00970318
     atom   11 type  1   force =     0.00000000   -0.00160715   -0.00970332
     atom   12 type  1   force =     0.00000000   -0.00160708   -0.00970332
     atom   13 type  1   force =     0.00000000    0.00056149   -0.00393208
     atom   14 type  1   force =     0.00000000    0.00056135   -0.00393213
     atom   15 type  1   force =     0.00000006   -0.00053427    0.00449337
     atom   16 type  1   force =    -0.00000006   -0.00053427    0.00449337
     atom   17 type  1   force =     0.00000000    0.00056141   -0.00393212
     atom   18 type  1   force =     0.00000000    0.00056140   -0.00393206
     atom   19 type  1   force =     0.00000002   -0.00053427    0.00449324
     atom   20 type  1   force =    -0.00000002   -0.00053427    0.00449324
     atom   21 type  1   force =     0.00000000    0.00028803   -0.00078211
     atom   22 type  1   force =     0.00000000    0.00028806   -0.00078214
     atom   23 type  1   force =     0.00000001   -0.00045199   -0.00055143
     atom   24 type  1   force =     0.00000000    0.00028799   -0.00078225
     atom   25 type  1   force =    -0.00000003   -0.00045199   -0.00055143
     atom   26 type  1   force =    -0.00000001   -0.00045199   -0.00055143
     atom   27 type  1   force =     0.00000003   -0.00045199   -0.00055143
     atom   28 type  1   force =     0.00000000    0.00028805   -0.00078219
     atom   29 type  1   force =     0.00000002   -0.00018650    0.00040180
     atom   30 type  1   force =     0.00000000    0.00019754   -0.00057141
     atom   31 type  1   force =    -0.00000000   -0.00018642    0.00040178
     atom   32 type  1   force =     0.00000000   -0.00018642    0.00040178
     atom   33 type  1   force =    -0.00000002   -0.00018650    0.00040180
     atom   34 type  1   force =     0.00000000    0.00019752   -0.00057146
     atom   35 type  1   force =     0.00000000    0.00019773   -0.00057140
     atom   36 type  1   force =     0.00000000    0.00019775   -0.00057143
     atom   37 type  1   force =     0.00000000    0.00018818   -0.00040468
     atom   38 type  1   force =     0.00000000    0.00018819   -0.00040472
     atom   39 type  1   force =    -0.00000002   -0.00019693    0.00057070
     atom   40 type  1   force =     0.00000002   -0.00019693    0.00057070
     atom   41 type  1   force =     0.00000002   -0.00019699    0.00057066
     atom   42 type  1   force =     0.00000000    0.00018812   -0.00040461
     atom   43 type  1   force =     0.00000000    0.00018812   -0.00040460
     atom   44 type  1   force =    -0.00000002   -0.00019699    0.00057066
     atom   45 type  1   force =     0.00000000    0.00045265    0.00055613
     atom   46 type  1   force =     0.00000000    0.00045264    0.00055609
     atom   47 type  1   force =     0.00000000    0.00045265    0.00055617
     atom   48 type  1   force =     0.00000000    0.00045267    0.00055611
     atom   49 type  1   force =     0.00000001   -0.00028719    0.00078480
     atom   50 type  1   force =    -0.00000001   -0.00028719    0.00078480
     atom   51 type  1   force =     0.00000001   -0.00028727    0.00078484
     atom   52 type  1   force =    -0.00000001   -0.00028727    0.00078484
     atom   53 type  1   force =     0.00000000    0.00053556   -0.00449823
     atom   54 type  1   force =     0.00000002   -0.00056091    0.00392457
     atom   55 type  1   force =    -0.00000000   -0.00056091    0.00392464
     atom   56 type  1   force =    -0.00000002   -0.00056091    0.00392457
     atom   57 type  1   force =     0.00000000   -0.00056091    0.00392464
     atom   58 type  1   force =     0.00000000    0.00053534   -0.00449824
     atom   59 type  1   force =     0.00000000    0.00053556   -0.00449830
     atom   60 type  1   force =     0.00000000    0.00053534   -0.00449826
     atom   61 type  1   force =     0.00000002    0.00160520    0.00970143
     atom   62 type  1   force =     0.00000000   -0.00336630    0.01660555
     atom   63 type  1   force =     0.00000000   -0.00336628    0.01660582
     atom   64 type  1   force =     0.00000000   -0.00336617    0.01660575
     atom   65 type  1   force =     0.00000000   -0.00336613    0.01660565
     atom   66 type  1   force =     0.00000003    0.00160517    0.00970150
     atom   67 type  1   force =    -0.00000002    0.00160520    0.00970143
     atom   68 type  1   force =    -0.00000003    0.00160517    0.00970150
     atom   69 type  1   force =    -0.00000019    0.00164847   -0.02668855
     atom   70 type  1   force =     0.00000000    0.00164845   -0.02668837
     atom   71 type  1   force =     0.00000019    0.00164847   -0.02668855
     atom   72 type  1   force =    -0.00000000    0.00164845   -0.02668837

     Total force =     0.095381     Total SCF correction =     0.001660

     General routines

     Parallel routines

   This run was terminated on:   6: 9:10   8Sep2021

   JOB DONE.