     Program PWSCF v.6.6 starts on  8Sep2021 at  3:57:20

     K-points division:     npool     =       2
     R & G space division:  proc/nbgrp/npool/nimage =      48
     Fft bands division:     nmany     =       1
     Reading input from ../inputs/input_ausurf_18

     Current dimensions of program PWSCF are:
     Max number of different atomic species (ntypx) = 10
     Max number of k-points (npk) =  40000
     Max angular momentum in pseudopotentials (lmaxx) =  3

     Subspace diagonalization in iterative solution of the eigenvalue problem:
     one sub-group per band group will be used

     Title:
      Ausurf

     bravais-lattice index     =            8
     lattice parameter (alat)  =       5.5747  a.u.
     unit-cell volume          =    3222.2468 (a.u.)^3
     number of atoms/cell      =           18
     number of atomic types    =            1
     number of electrons       =       198.00
     number of Kohn-Sham states=          119
     kinetic-energy cutoff     =      40.0000  Ry
     charge density cutoff     =     350.0000  Ry
     convergence threshold     =      1.0E-06
     mixing beta               =       0.7000
     number of iterations used =            8  TF        mixing
     Exchange-correlation=  SLA  PW   PBE  PBE
                           (   1   4   3   4   0   0   0)

     celldm(1)=   5.574692  celldm(2)=   1.732051  celldm(3)=  10.738300
     celldm(4)=   0.000000  celldm(5)=   0.000000  celldm(6)=   0.000000

     crystal axes: (cart. coord. in units of alat)
               a(1) = (   1.000000   0.000000   0.000000 )
               a(2) = (   0.000000   1.732051   0.000000 )
               a(3) = (   0.000000   0.000000  10.738300 )

     reciprocal axes: (cart. coord. in units 2 pi/alat)
               b(1) = (  1.000000  0.000000  0.000000 )
               b(2) = (  0.000000  0.577350  0.000000 )
               b(3) = (  0.000000  0.000000  0.093125 )

     PseudoPot. # 1 for Au read from file:
     /marconi/home/userexternal/czeni000/dft_src/pseudo/Au.pbe-nd-van.UPF
     MD5 check sum: deb5c07af10777505a79e28f5b4b4115
     Pseudo is Ultrasoft + core correction, Zval = 11.0
     Generated by new atomic code, or converted to UPF format
     Using radial grid of  985 points,  3 beta functions with:
                l(1) =   1
                l(2) =   2
                l(3) =   2
     Q(r) pseudized with  8 coefficients,  rinner =    1.100   1.100   1.100
                                                       1.100   1.100

     atomic species   valence    mass     pseudopotential
        Au            11.00   196.96000     Au( 1.00)

      2 Sym. Ops. (no inversion) found

   Cartesian axes

     site n.     atom                  positions (alat units)
         1           Au  tau(   1) = (   0.0000000   0.0000000   0.0000000  )
         2           Au  tau(   2) = (   0.5000000   0.2886753   0.8164966  )
         3           Au  tau(   3) = (   1.0000000   1.1547007   0.8164966  )
         4           Au  tau(   4) = (   1.0000000   0.5773502   1.6329932  )
         5           Au  tau(   5) = (   0.5000000   1.4433756   1.6329932  )
         6           Au  tau(   6) = (   0.0000000   0.0000000   2.4494898  )
         7           Au  tau(   7) = (   0.5000000   0.8660254   2.4494898  )
         8           Au  tau(   8) = (   0.5000000   0.2886753   3.2659864  )
         9           Au  tau(   9) = (   1.0000000   1.1547007   3.2659864  )
        10           Au  tau(  10) = (   1.0000000   0.5773502   4.0824831  )
        11           Au  tau(  11) = (   0.5000000   1.4433756   4.0824831  )
        12           Au  tau(  12) = (   0.0000000   0.0000000   4.8989793  )
        13           Au  tau(  13) = (   0.5000000   0.8660254   4.8989793  )
        14           Au  tau(  14) = (   0.5000000   0.2886753   5.7154759  )
        15           Au  tau(  15) = (   1.0000000   1.1547007   5.7154759  )
        16           Au  tau(  16) = (   1.0000000   0.5773502   6.5319725  )
        17           Au  tau(  17) = (   0.5000000   1.4433756   6.5319725  )
        18           Au  tau(  18) = (   0.5000000   0.8660254   7.3484692  )

     number of k points=    48  Marzari-Vanderbilt smearing, width (Ry)=  0.0500
                       cart. coord. in units 2pi/alat
        k(    1) = (   0.0312500   0.0240563   0.0000000), wk =   0.0416667
        k(    2) = (   0.0312500   0.0721688   0.0000000), wk =   0.0416667
        k(    3) = (   0.0312500   0.1202813   0.0000000), wk =   0.0416667
        k(    4) = (   0.0312500   0.1683938   0.0000000), wk =   0.0416667
        k(    5) = (   0.0312500   0.2165064   0.0000000), wk =   0.0416667
        k(    6) = (   0.0312500   0.2646189   0.0000000), wk =   0.0416667
        k(    7) = (   0.0937500   0.0240563   0.0000000), wk =   0.0416667
        k(    8) = (   0.0937500   0.0721688   0.0000000), wk =   0.0416667
        k(    9) = (   0.0937500   0.1202813   0.0000000), wk =   0.0416667
        k(   10) = (   0.0937500   0.1683938   0.0000000), wk =   0.0416667
        k(   11) = (   0.0937500   0.2165064   0.0000000), wk =   0.0416667
        k(   12) = (   0.0937500   0.2646189   0.0000000), wk =   0.0416667
        k(   13) = (   0.1562500   0.0240563   0.0000000), wk =   0.0416667
        k(   14) = (   0.1562500   0.0721688   0.0000000), wk =   0.0416667
        k(   15) = (   0.1562500   0.1202813   0.0000000), wk =   0.0416667
        k(   16) = (   0.1562500   0.1683938   0.0000000), wk =   0.0416667
        k(   17) = (   0.1562500   0.2165064   0.0000000), wk =   0.0416667
        k(   18) = (   0.1562500   0.2646189   0.0000000), wk =   0.0416667
        k(   19) = (   0.2187500   0.0240563   0.0000000), wk =   0.0416667
        k(   20) = (   0.2187500   0.0721688   0.0000000), wk =   0.0416667
        k(   21) = (   0.2187500   0.1202813   0.0000000), wk =   0.0416667
        k(   22) = (   0.2187500   0.1683938   0.0000000), wk =   0.0416667
        k(   23) = (   0.2187500   0.2165064   0.0000000), wk =   0.0416667
        k(   24) = (   0.2187500   0.2646189   0.0000000), wk =   0.0416667
        k(   25) = (   0.2812500   0.0240563   0.0000000), wk =   0.0416667
        k(   26) = (   0.2812500   0.0721688   0.0000000), wk =   0.0416667
        k(   27) = (   0.2812500   0.1202813   0.0000000), wk =   0.0416667
        k(   28) = (   0.2812500   0.1683938   0.0000000), wk =   0.0416667
        k(   29) = (   0.2812500   0.2165064   0.0000000), wk =   0.0416667
        k(   30) = (   0.2812500   0.2646189   0.0000000), wk =   0.0416667
        k(   31) = (   0.3437500   0.0240563   0.0000000), wk =   0.0416667
        k(   32) = (   0.3437500   0.0721688   0.0000000), wk =   0.0416667
        k(   33) = (   0.3437500   0.1202813   0.0000000), wk =   0.0416667
        k(   34) = (   0.3437500   0.1683938   0.0000000), wk =   0.0416667
        k(   35) = (   0.3437500   0.2165064   0.0000000), wk =   0.0416667
        k(   36) = (   0.3437500   0.2646189   0.0000000), wk =   0.0416667
        k(   37) = (   0.4062500   0.0240563   0.0000000), wk =   0.0416667
        k(   38) = (   0.4062500   0.0721688   0.0000000), wk =   0.0416667
        k(   39) = (   0.4062500   0.1202813   0.0000000), wk =   0.0416667
        k(   40) = (   0.4062500   0.1683938   0.0000000), wk =   0.0416667
        k(   41) = (   0.4062500   0.2165064   0.0000000), wk =   0.0416667
        k(   42) = (   0.4062500   0.2646189   0.0000000), wk =   0.0416667
        k(   43) = (   0.4687500   0.0240563   0.0000000), wk =   0.0416667
        k(   44) = (   0.4687500   0.0721688   0.0000000), wk =   0.0416667
        k(   45) = (   0.4687500   0.1202813   0.0000000), wk =   0.0416667
        k(   46) = (   0.4687500   0.1683938   0.0000000), wk =   0.0416667
        k(   47) = (   0.4687500   0.2165064   0.0000000), wk =   0.0416667
        k(   48) = (   0.4687500   0.2646189   0.0000000), wk =   0.0416667

     Initial potential from superposition of free atoms

     starting charge  197.79099, renormalised to  198.00000

     negative rho (up, down):  4.791E-01 0.000E+00
     Starting wfcs are  162 randomized atomic wfcs

     Self-consistent Calculation

     iteration #  1     ecut=    40.00 Ry     beta= 0.70
     Davidson diagonalization with overlap
     ethr =  1.00E-02,  avg # of iterations =  2.4

     Threshold (ethr) on eigenvalues was too large:
     Diagonalizing with lowered threshold

     Davidson diagonalization with overlap
     ethr =  3.36E-04,  avg # of iterations =  2.3

     negative rho (up, down):  4.551E-01 0.000E+00

     total energy              =   -1836.56880976 Ry
     estimated scf accuracy    <       0.78632222 Ry

[...]

     iteration #  3     ecut=    40.00 Ry     beta= 0.70
     Davidson diagonalization with overlap
     c_bands:  1 eigenvalues not converged
     ethr =  1.77E-04,  avg # of iterations =  2.5

[...]

     total energy              =   -1836.58919859 Ry
     estimated scf accuracy    <       0.00000147 Ry

     iteration # 22     ecut=    40.00 Ry     beta= 0.70
     Davidson diagonalization with overlap
     ethr =  7.41E-10,  avg # of iterations =  2.2

[...]

     End of self-consistent calculation

          k = 0.0312 0.0241 0.0000 ( 13817 PWs)   bands (ev):

    -0.8013  -0.4596   0.0371   0.6129   1.1364   1.4543   1.5752   1.5789
     1.6240   1.8587   1.8739   2.0431   2.1313   2.1743   2.2401   2.3280
     2.4864   2.4943   2.6713   3.0591   3.2678   3.3516   3.5637   3.7276
     3.7574   3.7647   3.8462   3.8890   3.8927   3.9109   3.9264   3.9328
     3.9599   3.9675   3.9824   4.0192   4.0407   4.0736   4.0854   4.0977
     4.1254   4.1707   4.1715   4.1771   4.2868   4.3097   4.3284   4.3542
     4.3702   4.3842   4.4977   4.5282   4.7022   4.7153   4.9056   5.0359
     5.1382   5.1741   5.1890   5.2072   5.2692   5.2765   5.2976   5.3372
     5.3422   5.4122   5.5002   5.5192   5.6298   5.6554   5.6742   5.7692
     5.8057   5.8524   5.9559   5.9941   6.0224   6.0634   6.1343   6.1964
     6.2208   6.2525   6.2908   6.3351   6.3404   6.3735   6.4053   6.4243
     6.4514   6.4866   6.5354   6.5705   6.5921   6.6080   6.6198   6.6369
     6.7415   6.7548   7.1428   7.9028   8.3908   8.7348   8.9550   9.0740
     9.3101   9.3203   9.6870   9.9242  10.0166  11.1476  11.3463  11.4774
    11.8935  12.0533  12.6325  12.7967  13.5057  13.8087  13.9674

[...]

          k = 0.4688 0.2646 0.0000 ( 13756 PWs)   bands (ev):

     1.6017   1.6256   1.8490   1.8527   1.8611   1.8747   2.0321   2.0477
     2.1268   2.1274   2.1498   2.1783   2.2277   2.2463   2.3188   2.3236
     2.4183   2.4380   2.4933   2.5029   2.6689   2.6925   3.0687   3.0897
     3.4470   3.4618   3.6463   3.6630   3.7776   3.7974   3.8671   3.8743
     3.9499   3.9584   4.1034   4.1084   4.1828   4.1904   4.4169   4.4415
     4.4672   4.4953   4.5324   4.5375   4.8761   4.9019   4.9508   4.9708
     5.0057   5.0319   5.2554   5.2646   5.3422   5.3773   5.5069   5.5592
     5.7374   5.7486   5.8378   5.8547   5.9728   6.0046   6.1595   6.1669
     6.1913   6.2347   6.2490   6.2624   6.2838   6.3038   6.3353   6.3388
     6.3631   6.3684   6.3836   6.4203   6.4243   6.4448   6.4501   6.4631
     6.5056   6.5082   6.5536   6.5663   6.6386   6.6638   6.6912   6.6928
     6.8172   6.8441   7.6067   8.0146   8.0946   8.4060   8.5042   8.6116
     8.8626   9.0151   9.0922   9.2878   9.5379   9.6065   9.7687   9.8547
    10.0810  10.2590  10.8432  10.8632  11.1065  11.1656  11.2564  11.3466
    11.8401  11.8891  12.5207  12.5499  12.6242  12.8431  13.4043

     the Fermi energy is     8.2689 ev

!    total energy              =   -1836.58919900 Ry
     estimated scf accuracy    <       0.00000021 Ry
     smearing contrib. (-TS)   =       0.02392241 Ry
     internal energy E=F+TS    =   -1836.61312141 Ry

     The total energy is F=E-TS. E is the sum of the following terms:
     one-electron contribution =   -8474.85391469 Ry
     hartree contribution      =    4424.63522912 Ry
     xc contribution           =    -887.75244124 Ry
     ewald contribution        =    3101.35800540 Ry

     convergence has been achieved in  22 iterations

     negative rho (up, down):  4.893E-01 0.000E+00

     Forces acting on atoms (cartesian axes, Ry/au):

     atom    1 type  1   force =     0.00000000   -0.00165343    0.02660898
     atom    2 type  1   force =     0.00000000    0.00337915   -0.01672027
     atom    3 type  1   force =     0.00000000   -0.00162101   -0.00980620
     atom    4 type  1   force =     0.00000000    0.00056430   -0.00403213
     atom    5 type  1   force =     0.00000000   -0.00053728    0.00441540
     atom    6 type  1   force =     0.00000000    0.00029321   -0.00085917
     atom    7 type  1   force =     0.00000000   -0.00044729   -0.00062939
     atom    8 type  1   force =     0.00000000   -0.00018945    0.00041823
     atom    9 type  1   force =     0.00000000    0.00019520   -0.00055490
     atom   10 type  1   force =     0.00000000    0.00019165   -0.00042192
     atom   11 type  1   force =     0.00000000   -0.00019437    0.00055397
     atom   12 type  1   force =     0.00000000    0.00044790    0.00063406
     atom   13 type  1   force =     0.00000000   -0.00029249    0.00086063
     atom   14 type  1   force =     0.00000000   -0.00056365    0.00402277
     atom   15 type  1   force =     0.00000000    0.00053820   -0.00442063
     atom   16 type  1   force =     0.00000000   -0.00337782    0.01671830
     atom   17 type  1   force =     0.00000000    0.00161911    0.00980506
     atom   18 type  1   force =     0.00000000    0.00164808   -0.02659279

     Total force =     0.047716     Total SCF correction =     0.002586

     General routines

     Parallel routines

   This run was terminated on:   3:59:45   8Sep2021

   JOB DONE.