     Program PWSCF v.6.6 starts on  8Sep2021 at  1: 0:25

     K-points division:     npool     =       8
     R & G space division:  proc/nbgrp/npool/nimage =       6
     Fft bands division:     nmany     =       1
     Reading input from ../inputs/input_ausurf_18

     Current dimensions of program PWSCF are:
     Max number of different atomic species (ntypx) = 10
     Max number of k-points (npk) =  40000
     Max angular momentum in pseudopotentials (lmaxx) =  3

     Subspace diagonalization in iterative solution of the eigenvalue problem:
     one sub-group per band group will be used

     Title:
      Ausurf

     bravais-lattice index     =            8
     lattice parameter (alat)  =       5.5747  a.u.
     unit-cell volume          =    3222.2468 (a.u.)^3
     number of atoms/cell      =           18
     number of atomic types    =            1
     number of electrons       =       198.00
     number of Kohn-Sham states=          119
     kinetic-energy cutoff     =      40.0000  Ry
     charge density cutoff     =     350.0000  Ry
     convergence threshold     =      1.0E-06
     mixing beta               =       0.7000
     number of iterations used =            8  TF        mixing
     Exchange-correlation=  SLA  PW   PBE  PBE
                           (   1   4   3   4   0   0   0)

     celldm(1)=   5.574692  celldm(2)=   1.732051  celldm(3)=  10.738300
     celldm(4)=   0.000000  celldm(5)=   0.000000  celldm(6)=   0.000000

     crystal axes: (cart. coord. in units of alat)
               a(1) = (   1.000000   0.000000   0.000000 )
               a(2) = (   0.000000   1.732051   0.000000 )
               a(3) = (   0.000000   0.000000  10.738300 )

     reciprocal axes: (cart. coord. in units 2 pi/alat)
               b(1) = (  1.000000  0.000000  0.000000 )
               b(2) = (  0.000000  0.577350  0.000000 )
               b(3) = (  0.000000  0.000000  0.093125 )

     PseudoPot. # 1 for Au read from file:
     /marconi/home/userexternal/czeni000/dft_src/pseudo/Au.pbe-nd-van.UPF
     MD5 check sum: deb5c07af10777505a79e28f5b4b4115
     Pseudo is Ultrasoft + core correction, Zval = 11.0
     Generated by new atomic code, or converted to UPF format
     Using radial grid of  985 points,  3 beta functions with:
                l(1) =   1
                l(2) =   2
                l(3) =   2
     Q(r) pseudized with  8 coefficients,  rinner =    1.100   1.100   1.100
                                                       1.100   1.100

     atomic species   valence    mass     pseudopotential
        Au            11.00   196.96000     Au( 1.00)

      2 Sym. Ops. (no inversion) found

   Cartesian axes

     site n.     atom                  positions (alat units)
         1           Au  tau(   1) = (   0.0000000   0.0000000   0.0000000  )
         2           Au  tau(   2) = (   0.5000000   0.2886753   0.8164966  )
         3           Au  tau(   3) = (   1.0000000   1.1547007   0.8164966  )
         4           Au  tau(   4) = (   1.0000000   0.5773502   1.6329932  )
         5           Au  tau(   5) = (   0.5000000   1.4433756   1.6329932  )
         6           Au  tau(   6) = (   0.0000000   0.0000000   2.4494898  )
         7           Au  tau(   7) = (   0.5000000   0.8660254   2.4494898  )
         8           Au  tau(   8) = (   0.5000000   0.2886753   3.2659864  )
         9           Au  tau(   9) = (   1.0000000   1.1547007   3.2659864  )
        10           Au  tau(  10) = (   1.0000000   0.5773502   4.0824831  )
        11           Au  tau(  11) = (   0.5000000   1.4433756   4.0824831  )
        12           Au  tau(  12) = (   0.0000000   0.0000000   4.8989793  )
        13           Au  tau(  13) = (   0.5000000   0.8660254   4.8989793  )
        14           Au  tau(  14) = (   0.5000000   0.2886753   5.7154759  )
        15           Au  tau(  15) = (   1.0000000   1.1547007   5.7154759  )
        16           Au  tau(  16) = (   1.0000000   0.5773502   6.5319725  )
        17           Au  tau(  17) = (   0.5000000   1.4433756   6.5319725  )
        18           Au  tau(  18) = (   0.5000000   0.8660254   7.3484692  )

     number of k points=    48  Marzari-Vanderbilt smearing, width (Ry)=  0.0500
                       cart. coord. in units 2pi/alat
        k(    1) = (   0.0312500   0.0240563   0.0000000), wk =   0.0416667
        k(    2) = (   0.0312500   0.0721688   0.0000000), wk =   0.0416667
        k(    3) = (   0.0312500   0.1202813   0.0000000), wk =   0.0416667
        k(    4) = (   0.0312500   0.1683938   0.0000000), wk =   0.0416667
        k(    5) = (   0.0312500   0.2165064   0.0000000), wk =   0.0416667
        k(    6) = (   0.0312500   0.2646189   0.0000000), wk =   0.0416667
        k(    7) = (   0.0937500   0.0240563   0.0000000), wk =   0.0416667
        k(    8) = (   0.0937500   0.0721688   0.0000000), wk =   0.0416667
        k(    9) = (   0.0937500   0.1202813   0.0000000), wk =   0.0416667
        k(   10) = (   0.0937500   0.1683938   0.0000000), wk =   0.0416667
        k(   11) = (   0.0937500   0.2165064   0.0000000), wk =   0.0416667
        k(   12) = (   0.0937500   0.2646189   0.0000000), wk =   0.0416667
        k(   13) = (   0.1562500   0.0240563   0.0000000), wk =   0.0416667
        k(   14) = (   0.1562500   0.0721688   0.0000000), wk =   0.0416667
        k(   15) = (   0.1562500   0.1202813   0.0000000), wk =   0.0416667
        k(   16) = (   0.1562500   0.1683938   0.0000000), wk =   0.0416667
        k(   17) = (   0.1562500   0.2165064   0.0000000), wk =   0.0416667
        k(   18) = (   0.1562500   0.2646189   0.0000000), wk =   0.0416667
        k(   19) = (   0.2187500   0.0240563   0.0000000), wk =   0.0416667
        k(   20) = (   0.2187500   0.0721688   0.0000000), wk =   0.0416667
        k(   21) = (   0.2187500   0.1202813   0.0000000), wk =   0.0416667
        k(   22) = (   0.2187500   0.1683938   0.0000000), wk =   0.0416667
        k(   23) = (   0.2187500   0.2165064   0.0000000), wk =   0.0416667
        k(   24) = (   0.2187500   0.2646189   0.0000000), wk =   0.0416667
        k(   25) = (   0.2812500   0.0240563   0.0000000), wk =   0.0416667
        k(   26) = (   0.2812500   0.0721688   0.0000000), wk =   0.0416667
        k(   27) = (   0.2812500   0.1202813   0.0000000), wk =   0.0416667
        k(   28) = (   0.2812500   0.1683938   0.0000000), wk =   0.0416667
        k(   29) = (   0.2812500   0.2165064   0.0000000), wk =   0.0416667
        k(   30) = (   0.2812500   0.2646189   0.0000000), wk =   0.0416667
        k(   31) = (   0.3437500   0.0240563   0.0000000), wk =   0.0416667
        k(   32) = (   0.3437500   0.0721688   0.0000000), wk =   0.0416667
        k(   33) = (   0.3437500   0.1202813   0.0000000), wk =   0.0416667
        k(   34) = (   0.3437500   0.1683938   0.0000000), wk =   0.0416667
        k(   35) = (   0.3437500   0.2165064   0.0000000), wk =   0.0416667
        k(   36) = (   0.3437500   0.2646189   0.0000000), wk =   0.0416667
        k(   37) = (   0.4062500   0.0240563   0.0000000), wk =   0.0416667
        k(   38) = (   0.4062500   0.0721688   0.0000000), wk =   0.0416667
        k(   39) = (   0.4062500   0.1202813   0.0000000), wk =   0.0416667
        k(   40) = (   0.4062500   0.1683938   0.0000000), wk =   0.0416667
        k(   41) = (   0.4062500   0.2165064   0.0000000), wk =   0.0416667
        k(   42) = (   0.4062500   0.2646189   0.0000000), wk =   0.0416667
        k(   43) = (   0.4687500   0.0240563   0.0000000), wk =   0.0416667
        k(   44) = (   0.4687500   0.0721688   0.0000000), wk =   0.0416667
        k(   45) = (   0.4687500   0.1202813   0.0000000), wk =   0.0416667
        k(   46) = (   0.4687500   0.1683938   0.0000000), wk =   0.0416667
        k(   47) = (   0.4687500   0.2165064   0.0000000), wk =   0.0416667
        k(   48) = (   0.4687500   0.2646189   0.0000000), wk =   0.0416667

     Initial potential from superposition of free atoms

     starting charge  197.79099, renormalised to  198.00000

     negative rho (up, down):  4.791E-01 0.000E+00
     Starting wfcs are  162 randomized atomic wfcs

     Self-consistent Calculation

     iteration #  1     ecut=    40.00 Ry     beta= 0.70
     Davidson diagonalization with overlap
     ethr =  1.00E-02,  avg # of iterations =  2.5

     Threshold (ethr) on eigenvalues was too large:
     Diagonalizing with lowered threshold

     Davidson diagonalization with overlap
     ethr =  3.36E-04,  avg # of iterations =  2.4

     negative rho (up, down):  4.551E-01 0.000E+00

     total energy              =   -1836.56885128 Ry
     estimated scf accuracy    <       0.78627947 Ry

[...]

     total energy              =   -1836.58918961 Ry
     estimated scf accuracy    <       0.00000484 Ry

     iteration # 19     ecut=    40.00 Ry     beta= 0.70
     Davidson diagonalization with overlap
     ethr =  2.44E-09,  avg # of iterations =  4.1

[...]

     End of self-consistent calculation

          k = 0.0312 0.0241 0.0000 ( 13817 PWs)   bands (ev):

    -0.8011  -0.4593   0.0372   0.6129   1.1365   1.4543   1.5754   1.5792
     1.6242   1.8589   1.8742   2.0435   2.1316   2.1745   2.2404   2.3284
     2.4865   2.4944   2.6716   3.0592   3.2674   3.3512   3.5637   3.7278
     3.7577   3.7649   3.8464   3.8892   3.8930   3.9112   3.9266   3.9331
     3.9602   3.9677   3.9827   4.0195   4.0409   4.0740   4.0857   4.0980
     4.1257   4.1711   4.1718   4.1775   4.2870   4.3097   4.3284   4.3542
     4.3702   4.3843   4.4977   4.5284   4.7018   4.7152   4.9057   5.0357
     5.1381   5.1743   5.1891   5.2070   5.2695   5.2768   5.2976   5.3375
     5.3425   5.4121   5.5004   5.5192   5.6292   5.6554   5.6742   5.7691
     5.8057   5.8521   5.9558   5.9940   6.0225   6.0634   6.1343   6.1966
     6.2211   6.2524   6.2910   6.3354   6.3405   6.3738   6.4053   6.4246
     6.4515   6.4865   6.5348   6.5697   6.5919   6.6078   6.6195   6.6367
     6.7409   6.7543   7.1429   7.9030   8.3910   8.7351   8.9551   9.0739
     9.3102   9.3201   9.6871   9.9245  10.0168  11.1478  11.3461  11.4774
    11.8937  12.0534  12.6310  12.7719  13.5047  13.8073  13.9582

[...]

          k = 0.4688 0.2646 0.0000 ( 13756 PWs)   bands (ev):

     1.6019   1.6258   1.8493   1.8529   1.8613   1.8751   2.0325   2.0480
     2.1270   2.1276   2.1501   2.1786   2.2279   2.2466   2.3191   2.3239
     2.4183   2.4380   2.4934   2.5030   2.6691   2.6927   3.0689   3.0898
     3.4471   3.4619   3.6465   3.6631   3.7779   3.7977   3.8673   3.8745
     3.9502   3.9587   4.1032   4.1083   4.1831   4.1907   4.4170   4.4416
     4.4673   4.4955   4.5325   4.5376   4.8761   4.9019   4.9507   4.9705
     5.0057   5.0319   5.2549   5.2640   5.3421   5.3772   5.5069   5.5591
     5.7373   5.7486   5.8378   5.8547   5.9728   6.0047   6.1591   6.1664
     6.1914   6.2347   6.2491   6.2624   6.2837   6.3040   6.3356   6.3391
     6.3630   6.3687   6.3840   6.4206   6.4246   6.4448   6.4502   6.4632
     6.5057   6.5083   6.5536   6.5664   6.6387   6.6639   6.6912   6.6928
     6.8168   6.8438   7.6069   8.0147   8.0948   8.4062   8.5044   8.6117
     8.8627   9.0151   9.0924   9.2879   9.5380   9.6065   9.7689   9.8548
    10.0812  10.2592  10.8431  10.8631  11.1064  11.1654  11.2564  11.3466
    11.8403  11.8892  12.5204  12.5499  12.6240  12.8433  13.4044

     the Fermi energy is     8.2690 ev

!    total energy              =   -1836.58919871 Ry
     estimated scf accuracy    <       0.00000080 Ry
     smearing contrib. (-TS)   =       0.02388344 Ry
     internal energy E=F+TS    =   -1836.61308214 Ry

     The total energy is F=E-TS. E is the sum of the following terms:
     one-electron contribution =   -8474.80249148 Ry
     hartree contribution      =    4424.58348199 Ry
     xc contribution           =    -887.75207806 Ry
     ewald contribution        =    3101.35800540 Ry

     convergence has been achieved in  19 iterations

     negative rho (up, down):  4.893E-01 0.000E+00

     Forces acting on atoms (cartesian axes, Ry/au):

     atom    1 type  1   force =     0.00000000   -0.00165467    0.02661514
     atom    2 type  1   force =     0.00000000    0.00348718   -0.01637105
     atom    3 type  1   force =     0.00000000   -0.00173408   -0.00955087
     atom    4 type  1   force =     0.00000000    0.00057288   -0.00385796
     atom    5 type  1   force =     0.00000000   -0.00054338    0.00459823
     atom    6 type  1   force =     0.00000000    0.00029437   -0.00089254
     atom    7 type  1   force =     0.00000000   -0.00044558   -0.00065184
     atom    8 type  1   force =     0.00000000   -0.00018598    0.00039106
     atom    9 type  1   force =     0.00000000    0.00019172   -0.00058128
     atom   10 type  1   force =     0.00000000    0.00018823   -0.00039511
     atom   11 type  1   force =     0.00000000   -0.00019141    0.00057759
     atom   12 type  1   force =     0.00000000    0.00044591    0.00065697
     atom   13 type  1   force =     0.00000000   -0.00029489    0.00089525
     atom   14 type  1   force =     0.00000000   -0.00057206    0.00384923
     atom   15 type  1   force =     0.00000000    0.00054425   -0.00460610
     atom   16 type  1   force =     0.00000000   -0.00348536    0.01636860
     atom   17 type  1   force =     0.00000000    0.00173273    0.00954675
     atom   18 type  1   force =     0.00000000    0.00165015   -0.02659208

     Total force =     0.047403     Total SCF correction =     0.002208

     General routines

     Parallel routines

   This run was terminated on:   1: 1:10   8Sep2021

   JOB DONE.