     Program PWSCF v.6.6 starts on  8Sep2021 at  4:38:42

     K-points division:     npool     =       4
     R & G space division:  proc/nbgrp/npool/nimage =      24
     Fft bands division:     nmany     =       1
     Reading input from ../inputs/input_ausurf_72

     Current dimensions of program PWSCF are:
     Max number of different atomic species (ntypx) = 10
     Max number of k-points (npk) =  40000
     Max angular momentum in pseudopotentials (lmaxx) =  3

     Subspace diagonalization in iterative solution of the eigenvalue problem:
     one sub-group per band group will be used

     Found symmetry operation: I + ( -0.5000  0.0000  0.0000)
     This is a supercell, fractional translations are disabled

     Title:
      Ausurf

     bravais-lattice index     =            8
     lattice parameter (alat)  =      11.1494  a.u.
     unit-cell volume          =   12888.9871 (a.u.)^3
     number of atoms/cell      =           72
     number of atomic types    =            1
     number of electrons       =       792.00
     number of Kohn-Sham states=          475
     kinetic-energy cutoff     =      40.0000  Ry
     charge density cutoff     =     350.0000  Ry
     convergence threshold     =      1.0E-06
     mixing beta               =       0.7000
     number of iterations used =            8  TF        mixing
     Exchange-correlation=  SLA  PW   PBE  PBE
                           (   1   4   3   4   0   0   0)

     celldm(1)=  11.149384  celldm(2)=   1.732051  celldm(3)=   5.369150
     celldm(4)=   0.000000  celldm(5)=   0.000000  celldm(6)=   0.000000

     crystal axes: (cart. coord. in units of alat)
               a(1) = (   1.000000   0.000000   0.000000 )
               a(2) = (   0.000000   1.732051   0.000000 )
               a(3) = (   0.000000   0.000000   5.369150 )

     reciprocal axes: (cart. coord. in units 2 pi/alat)
               b(1) = (  1.000000  0.000000  0.000000 )
               b(2) = (  0.000000  0.577350  0.000000 )
               b(3) = (  0.000000  0.000000  0.186249 )

     PseudoPot. # 1 for Au read from file:
     /marconi/home/userexternal/czeni000/dft_src/pseudo/Au.pbe-nd-van.UPF
     MD5 check sum: deb5c07af10777505a79e28f5b4b4115
     Pseudo is Ultrasoft + core correction, Zval = 11.0
     Generated by new atomic code, or converted to UPF format
     Using radial grid of  985 points,  3 beta functions with:
                l(1) =   1
                l(2) =   2
                l(3) =   2
     Q(r) pseudized with  8 coefficients,  rinner =    1.100   1.100   1.100
                                                       1.100   1.100

     atomic species   valence    mass     pseudopotential
        Au            11.00   196.96000     Au( 1.00)

      2 Sym. Ops. (no inversion) found

   Cartesian axes

     site n.     atom                  positions (alat units)
         1           Au  tau(   1) = (   0.0000000   0.0000000   0.0000000  )
         2           Au  tau(   2) = (   0.5000000   0.0000000   0.0000000  )
         3           Au  tau(   3) = (   0.0000000   0.8660254   0.0000000  )
         4           Au  tau(   4) = (   0.5000000   0.8660254   0.0000000  )
         5           Au  tau(   5) = (   0.2500000   0.1443376   0.4082483  )
         6           Au  tau(   6) = (   0.7500000   0.1443376   0.4082483  )
         7           Au  tau(   7) = (   0.2500000   1.0103631   0.4082483  )
         8           Au  tau(   8) = (   0.7500000   1.0103631   0.4082483  )
         9           Au  tau(   9) = (   0.5000000   0.5773503   0.4082483  )
        10           Au  tau(  10) = (   0.5000000   1.4433756   0.4082483  )
        11           Au  tau(  11) = (   1.0000000   0.5773503   0.4082483  )
        12           Au  tau(  12) = (   1.0000000   1.4433756   0.4082483  )
        13           Au  tau(  13) = (   0.5000000   0.2886751   0.8164966  )
        14           Au  tau(  14) = (   1.0000000   0.2886751   0.8164966  )
        15           Au  tau(  15) = (   0.2500000   0.7216878   0.8164966  )
        16           Au  tau(  16) = (   0.7500000   0.7216878   0.8164966  )
        17           Au  tau(  17) = (   0.5000000   1.1547005   0.8164966  )
        18           Au  tau(  18) = (   1.0000000   1.1547005   0.8164966  )
        19           Au  tau(  19) = (   0.2500000   1.5877132   0.8164966  )
        20           Au  tau(  20) = (   0.7500000   1.5877132   0.8164966  )
        21           Au  tau(  21) = (   0.0000000   0.0000000   1.2247449  )
        22           Au  tau(  22) = (   0.5000000   0.0000000   1.2247449  )
        23           Au  tau(  23) = (   0.2500000   0.4330127   1.2247449  )
        24           Au  tau(  24) = (   0.5000000   0.8660254   1.2247449  )
        25           Au  tau(  25) = (   0.2500000   1.2990381   1.2247449  )
        26           Au  tau(  26) = (   0.7500000   0.4330127   1.2247449  )
        27           Au  tau(  27) = (   0.7500000   1.2990381   1.2247449  )
        28           Au  tau(  28) = (   0.0000000   0.8660254   1.2247449  )
        29           Au  tau(  29) = (   0.2500000   1.0103631   1.6329932  )
        30           Au  tau(  30) = (   1.0000000   0.5773503   1.6329932  )
        31           Au  tau(  31) = (   0.2500000   0.1443376   1.6329932  )
        32           Au  tau(  32) = (   0.7500000   0.1443376   1.6329932  )
        33           Au  tau(  33) = (   0.7500000   1.0103631   1.6329932  )
        34           Au  tau(  34) = (   0.5000000   0.5773503   1.6329932  )
        35           Au  tau(  35) = (   0.5000000   1.4433756   1.6329932  )
        36           Au  tau(  36) = (   1.0000000   1.4433756   1.6329932  )
        37           Au  tau(  37) = (   0.5000000   0.2886751   2.0412415  )
        38           Au  tau(  38) = (   1.0000000   0.2886751   2.0412415  )
        39           Au  tau(  39) = (   0.2500000   0.7216878   2.0412415  )
        40           Au  tau(  40) = (   0.7500000   0.7216878   2.0412415  )
        41           Au  tau(  41) = (   0.7500000   1.5877132   2.0412415  )
        42           Au  tau(  42) = (   0.5000000   1.1547005   2.0412415  )
        43           Au  tau(  43) = (   1.0000000   1.1547005   2.0412415  )
        44           Au  tau(  44) = (   0.2500000   1.5877132   2.0412415  )
        45           Au  tau(  45) = (   0.0000000   0.0000000   2.4494897  )
        46           Au  tau(  46) = (   0.0000000   0.8660254   2.4494897  )
        47           Au  tau(  47) = (   0.5000000   0.0000000   2.4494897  )
        48           Au  tau(  48) = (   0.5000000   0.8660254   2.4494897  )
        49           Au  tau(  49) = (   0.2500000   0.4330127   2.4494897  )
        50           Au  tau(  50) = (   0.7500000   0.4330127   2.4494897  )
        51           Au  tau(  51) = (   0.2500000   1.2990381   2.4494897  )
        52           Au  tau(  52) = (   0.7500000   1.2990381   2.4494897  )
        53           Au  tau(  53) = (   1.0000000   1.4433756   2.8577380  )
        54           Au  tau(  54) = (   0.2500000   0.1443376   2.8577380  )
        55           Au  tau(  55) = (   0.2500000   1.0103631   2.8577380  )
        56           Au  tau(  56) = (   0.7500000   0.1443376   2.8577380  )
        57           Au  tau(  57) = (   0.7500000   1.0103631   2.8577380  )
        58           Au  tau(  58) = (   0.5000000   0.5773503   2.8577380  )
        59           Au  tau(  59) = (   0.5000000   1.4433756   2.8577380  )
        60           Au  tau(  60) = (   1.0000000   0.5773503   2.8577380  )
        61           Au  tau(  61) = (   0.7500000   1.5877132   3.2659863  )
        62           Au  tau(  62) = (   0.5000000   0.2886751   3.2659863  )
        63           Au  tau(  63) = (   0.5000000   1.1547005   3.2659863  )
        64           Au  tau(  64) = (   1.0000000   0.2886751   3.2659863  )
        65           Au  tau(  65) = (   1.0000000   1.1547005   3.2659863  )
        66           Au  tau(  66) = (   0.2500000   0.7216878   3.2659863  )
        67           Au  tau(  67) = (   0.2500000   1.5877132   3.2659863  )
        68           Au  tau(  68) = (   0.7500000   0.7216878   3.2659863  )
        69           Au  tau(  69) = (   0.2500000   0.4330127   3.6742346  )
        70           Au  tau(  70) = (   0.2500000   1.2990381   3.6742346  )
        71           Au  tau(  71) = (   0.7500000   0.4330127   3.6742346  )
        72           Au  tau(  72) = (   0.7500000   1.2990381   3.6742346  )

     number of k points=    18  Marzari-Vanderbilt smearing, width (Ry)=  0.0500
                       cart. coord. in units 2pi/alat
        k(    1) = (   0.0416667   0.0481125   0.0000000), wk =   0.1111111
        k(    2) = (   0.0416667   0.1443376   0.0000000), wk =   0.1111111
        k(    3) = (   0.0416667   0.2405626   0.0000000), wk =   0.1111111
        k(    4) = (   0.1250000   0.0481125   0.0000000), wk =   0.1111111
        k(    5) = (   0.1250000   0.1443376   0.0000000), wk =   0.1111111
        k(    6) = (   0.1250000   0.2405626   0.0000000), wk =   0.1111111
        k(    7) = (   0.2083333   0.0481125   0.0000000), wk =   0.1111111
        k(    8) = (   0.2083333   0.1443376   0.0000000), wk =   0.1111111
        k(    9) = (   0.2083333   0.2405626   0.0000000), wk =   0.1111111
        k(   10) = (   0.2916667   0.0481125   0.0000000), wk =   0.1111111
        k(   11) = (   0.2916667   0.1443376   0.0000000), wk =   0.1111111
        k(   12) = (   0.2916667   0.2405626   0.0000000), wk =   0.1111111
        k(   13) = (   0.3750000   0.0481125   0.0000000), wk =   0.1111111
        k(   14) = (   0.3750000   0.1443376   0.0000000), wk =   0.1111111
        k(   15) = (   0.3750000   0.2405626   0.0000000), wk =   0.1111111
        k(   16) = (   0.4583333   0.0481125   0.0000000), wk =   0.1111111
        k(   17) = (   0.4583333   0.1443376   0.0000000), wk =   0.1111111
        k(   18) = (   0.4583333   0.2405626   0.0000000), wk =   0.1111111

     Initial potential from superposition of free atoms

     starting charge  791.16394, renormalised to  792.00000

     negative rho (up, down):  1.916E+00 0.000E+00
     Starting wfcs are  648 randomized atomic wfcs

     Self-consistent Calculation

     iteration #  1     ecut=    40.00 Ry     beta= 0.70
     Davidson diagonalization with overlap
     ethr =  1.00E-02,  avg # of iterations =  2.5

     Threshold (ethr) on eigenvalues was too large:
     Diagonalizing with lowered threshold

     Davidson diagonalization with overlap
     ethr =  3.34E-04,  avg # of iterations =  2.8

     negative rho (up, down):  1.820E+00 0.000E+00

     total energy              =   -7346.27267516 Ry
     estimated scf accuracy    <       3.14762074 Ry

[...]

     iteration # 13     ecut=    40.00 Ry     beta= 0.70
     Davidson diagonalization with overlap
     c_bands:  1 eigenvalues not converged
     ethr =  8.84E-06,  avg # of iterations = 10.3

[...]

     iteration # 16     ecut=    40.00 Ry     beta= 0.70
     Davidson diagonalization with overlap
     c_bands:  1 eigenvalues not converged
     ethr =  2.62E-06,  avg # of iterations =  7.5

[...]

     total energy              =   -7346.35669472 Ry
     estimated scf accuracy    <       0.00003031 Ry

     iteration # 21     ecut=    40.00 Ry     beta= 0.70
     Davidson diagonalization with overlap
     ethr =  3.83E-09,  avg # of iterations =  2.6

[...]

     End of self-consistent calculation

          k = 0.0417 0.0481 0.0000 ( 55126 PWs)   bands (ev):

    -0.8129  -0.4712   0.0255   0.5492   0.6016   0.8363   0.9651   1.1252
     1.2161   1.2464   1.4435   1.5574   1.5650   1.5684   1.6037   1.6144
     1.6196   1.7229   1.8477   1.8507   1.8522   1.8547   1.8642   1.8684
     1.9219   2.0303   2.0338   2.0407   2.1221   2.1228   2.1255   2.1517
     2.1521   2.1637   2.1715   2.2259   2.2294   2.2383   2.2443   2.2807
     2.3149   2.3181   2.3230   2.3338   2.3504   2.3812   2.3917   2.4116
     2.4167   2.4302   2.4408   2.4760   2.4838   2.4888   2.4954   2.5152
     2.5246   2.5464   2.5803   2.6023   2.6235   2.6416   2.6673   2.6689
     2.6847   2.7238   2.7342   2.7591   2.7690   2.7907   2.8248   2.8574
     2.9327   2.9404   2.9613   2.9795   3.0562   3.0695   3.0815   3.0835
     3.1172   3.1480   3.1696   3.1762   3.1947   3.2140   3.2337   3.2614
     3.2910   3.3218   3.3245   3.3319   3.3439   3.3608   3.3695   3.3759
     3.4220   3.4496   3.4594   3.4758   3.4826   3.5091   3.5121   3.5481
     3.5629   3.5671   3.5869   3.6019   3.6077   3.6212   3.6469   3.6482
     3.6595   3.6847   3.6908   3.7320   3.7327   3.7657   3.7744   3.7790
     3.7921   3.7941   3.8015   3.8282   3.8526   3.8650   3.8698   3.8698
     3.8936   3.8953   3.9021   3.9074   3.9194   3.9261   3.9346   3.9389
     3.9496   3.9551   3.9554   3.9611   3.9636   3.9802   3.9878   3.9941
     4.0119   4.0262   4.0426   4.0733   4.0802   4.0869   4.0954   4.0993
     4.1079   4.1101   4.1179   4.1338   4.1400   4.1646   4.1655   4.1658
     4.1744   4.1755   4.1832   4.1890   4.1906   4.2009   4.2067   4.2186
     4.2379   4.2550   4.3003   4.3059   4.3145   4.3185   4.3220   4.3330
     4.3481   4.3579   4.3674   4.3705   4.3808   4.3829   4.3945   4.4298
     4.4315   4.4336   4.4526   4.4661   4.4686   4.4917   4.5098   4.5128
     4.5189   4.5250   4.5282   4.5336   4.5363   4.5974   4.6327   4.6593
     4.6927   4.6992   4.7083   4.7184   4.7252   4.7467   4.7516   4.7644
     4.7728   4.8138   4.8721   4.8810   4.8821   4.8920   4.8962   4.8991
     4.9029   4.9300   4.9596   4.9750   4.9811   4.9914   4.9991   5.0117
     5.0295   5.0306   5.0353   5.0605   5.0822   5.1088   5.1116   5.1244
     5.1281   5.1513   5.1541   5.1908   5.2014   5.2161   5.2236   5.2292
     5.2317   5.2363   5.2604   5.2615   5.2659   5.2704   5.2755   5.2830
     5.2962   5.3189   5.3271   5.3322   5.3344   5.3404   5.3473   5.3511
     5.3545   5.3752   5.4064   5.4199   5.4280   5.4314   5.4608   5.4792
     5.4888   5.4962   5.5163   5.5164   5.5400   5.5454   5.5510   5.5549
     5.5725   5.6063   5.6111   5.6411   5.6478   5.6786   5.6972   5.6999
     5.7302   5.7482   5.7566   5.7622   5.7907   5.8117   5.8306   5.8487
     5.8599   5.8654   5.8929   5.8972   5.9060   5.9252   5.9599   5.9770
     5.9780   5.9954   5.9963   6.0131   6.0738   6.0943   6.0977   6.1167
     6.1180   6.1336   6.1429   6.1658   6.1749   6.1792   6.1962   6.2014
     6.2064   6.2195   6.2314   6.2339   6.2347   6.2529   6.2598   6.2670
     6.2938   6.3037   6.3139   6.3279   6.3362   6.3461   6.3461   6.3477
     6.3609   6.3717   6.3762   6.3777   6.3788   6.3905   6.3922   6.3925
     6.3957   6.3980   6.3989   6.4286   6.4319   6.4325   6.4347   6.4386
     6.4516   6.4562   6.4651   6.4677   6.4864   6.5117   6.5126   6.5342
     6.5460   6.5486   6.5646   6.5714   6.5749   6.5870   6.5875   6.5957
     6.5990   6.6010   6.6085   6.6332   6.6382   6.6527   6.6706   6.6969
     6.6975   6.7189   6.7246   6.7565   6.7605   6.8336   6.8528   6.8763
     6.9123   6.9127   6.9557   7.0799   7.5266   7.6699   7.7396   7.7970
     7.7988   7.8522   8.0376   8.0477   8.1462   8.2410   8.2771   8.3597
     8.4534   8.4655   8.5508   8.5856   8.7138   8.7752   8.7833   8.7921
     8.9273   8.9468   8.9508   9.0403   9.0558   9.1042   9.1966   9.2728
     9.2777   9.2966   9.3532   9.4611   9.5885   9.6442   9.6612   9.7176
     9.7599   9.8306   9.9043   9.9109   9.9362   9.9944   9.9979  10.0744
    10.5294  10.6511  10.8569  10.8656  10.9821  11.0637  11.0766  11.1450
    11.2294  11.2590  11.2643  11.3282  11.3376  11.3825  11.4668  11.7284
    11.8211  11.8826  11.9531  12.0478  12.0586  12.0969  12.3380  12.3799
    12.4490  12.5509  12.6091  12.6162  12.6196  12.6452  12.7847  12.8468
    12.8749  13.2440  13.2844  13.3197  13.3837  13.4641  13.4914  13.6763
    13.6815  13.7256  13.8093  13.8229  13.8832  13.9534  13.9594  13.9915
    13.9954  13.9989  14.0080

[...]

          k = 0.4583 0.2406 0.0000 ( 55107 PWs)   bands (ev):

     0.4901   0.7196   0.7834   0.8245   0.9952   1.0080   1.0910   1.2051
     1.2570   1.3854   1.4638   1.5912   1.6939   1.8292   1.8814   1.9456
     2.1292   2.2126   2.2303   2.2343   2.2907   2.3020   2.3255   2.3295
     2.3450   2.3581   2.3766   2.3992   2.4064   2.4123   2.4232   2.4264
     2.4283   2.4604   2.4839   2.4858   2.5136   2.5377   2.5648   2.5758
     2.5802   2.5881   2.5983   2.5987   2.6209   2.6352   2.6615   2.6943
     2.7150   2.7167   2.7268   2.7431   2.7451   2.7602   2.7758   2.7810
     2.8067   2.8148   2.8345   2.8372   2.8556   2.8596   2.8610   2.9119
     2.9197   2.9374   2.9569   3.0113   3.0221   3.0566   3.0677   3.0805
     3.0829   3.0852   3.1110   3.1308   3.1431   3.1803   3.1966   3.1989
     3.2090   3.2125   3.2234   3.2250   3.2284   3.2630   3.2675   3.3167
     3.3246   3.3293   3.3476   3.3607   3.3733   3.3733   3.3759   3.4097
     3.4139   3.4348   3.4389   3.4390   3.4644   3.4733   3.4749   3.4861
     3.4963   3.5063   3.5151   3.5187   3.5383   3.5391   3.5581   3.5710
     3.5765   3.5921   3.5984   3.6017   3.6211   3.6245   3.6253   3.6261
     3.6621   3.6935   3.6962   3.7152   3.7190   3.7210   3.7305   3.7345
     3.7459   3.7770   3.7905   3.8108   3.8253   3.8494   3.8558   3.8752
     3.9044   3.9166   3.9226   3.9246   3.9308   3.9785   3.9924   4.0058
     4.0126   4.0284   4.0392   4.0393   4.0686   4.0858   4.0913   4.0969
     4.0979   4.1142   4.1203   4.1297   4.1352   4.1425   4.1625   4.1640
     4.1650   4.1711   4.1783   4.1813   4.1972   4.1988   4.1995   4.1999
     4.2102   4.2142   4.2188   4.2309   4.2318   4.2319   4.2374   4.2389
     4.2503   4.2580   4.2679   4.2785   4.2827   4.3154   4.3281   4.3447
     4.3561   4.3626   4.3720   4.3895   4.4067   4.4267   4.4296   4.4345
     4.4626   4.4631   4.4843   4.4912   4.5225   4.5407   4.5500   4.5661
     4.5771   4.5909   4.6079   4.6398   4.6476   4.6522   4.6669   4.6845
     4.6860   4.6992   4.7038   4.7447   4.7457   4.7650   4.7790   4.7974
     4.8059   4.8114   4.8235   4.8282   4.8301   4.8586   4.8723   4.8739
     4.8800   4.8860   4.8884   4.8946   4.9185   4.9464   4.9535   4.9648
     4.9813   4.9913   4.9931   5.0146   5.0229   5.0342   5.0424   5.0587
     5.0607   5.0734   5.0784   5.0865   5.1212   5.1336   5.1353   5.1487
     5.1514   5.1554   5.1612   5.1619   5.1854   5.1902   5.1909   5.2044
     5.2071   5.2222   5.2285   5.2321   5.2392   5.2425   5.2463   5.2586
     5.2646   5.2835   5.2887   5.3120   5.3161   5.3274   5.3311   5.3447
     5.3555   5.3762   5.3808   5.3952   5.3952   5.3987   5.4131   5.4319
     5.4342   5.4461   5.4562   5.4576   5.4593   5.4743   5.4746   5.4950
     5.5089   5.5186   5.5321   5.5359   5.5554   5.5644   5.5679   5.5771
     5.5936   5.6046   5.6217   5.6450   5.6452   5.6472   5.6581   5.6788
     5.6857   5.7122   5.7297   5.7428   5.7492   5.7626   5.7691   5.7724
     5.7763   5.7980   5.8071   5.8106   5.8326   5.8581   5.8598   5.8762
     5.9020   5.9105   5.9463   5.9468   5.9580   5.9629   5.9685   5.9771
     6.0527   6.0562   6.0730   6.0733   6.0888   6.1069   6.1075   6.1080
     6.1226   6.1391   6.1400   6.1499   6.1573   6.1651   6.1818   6.1857
     6.2138   6.2189   6.2334   6.2468   6.2976   6.3310   6.3375   6.3454
     6.3622   6.3650   6.3764   6.3833   6.3851   6.3866   6.3943   6.4091
     6.4163   6.4484   6.4527   6.4780   6.4780   6.4784   6.5015   6.5173
     6.5364   6.5466   6.5481   6.5652   6.6058   6.6346   6.6370   6.6372
     6.6817   6.6916   6.6970   6.7463   6.9340   7.0626   7.1469   7.2576
     7.5254   7.5293   7.5833   7.6862   7.8061   7.8155   7.8494   7.8704
     8.0012   8.1133   8.1925   8.2137   8.2981   8.3494   8.4064   8.4240
     8.5150   8.6486   8.6488   8.6702   8.7882   8.9665   9.0638   9.1464
     9.2312   9.2985   9.3146   9.4963   9.5762   9.6973   9.8241  10.0040
    10.2244  10.2644  10.2982  10.3937  10.5521  10.5645  10.6809  10.9349
    11.0862  11.2965  11.4509  11.5488  11.6655  11.8310  11.9312  12.0007
    12.0634  12.2787  12.3150  12.3562  12.7415  12.7791  12.8734  12.8934
    12.9051  13.0224  13.0937  13.1007  13.1795  13.2272  13.2491  13.2591
    13.2946  13.3789  13.4404  13.4715  13.5038  13.5235  13.7598  13.7658
    13.8145  13.9332  13.9337  13.9393  14.0248  14.0486  14.0697  14.1268
    14.1609  14.2310  14.2430  14.3216  14.3739  14.4008  14.4228  14.5569
    14.6065  14.7683  14.8797

     the Fermi energy is     8.2691 ev

!    total energy              =   -7346.35669885 Ry
     estimated scf accuracy    <       0.00000040 Ry
     smearing contrib. (-TS)   =       0.09475918 Ry
     internal energy E=F+TS    =   -7346.45145803 Ry

     The total energy is F=E-TS. E is the sum of the following terms:
     one-electron contribution =  -33899.16914854 Ry
     hartree contribution      =   17698.29399031 Ry
     xc contribution           =   -3551.00831245 Ry
     ewald contribution        =   12405.43201265 Ry

     convergence has been achieved in  21 iterations

     negative rho (up, down):  1.957E+00 0.000E+00

     Forces acting on atoms (cartesian axes, Ry/au):

     atom    1 type  1   force =     0.00000000   -0.00165400    0.02678568
     atom    2 type  1   force =     0.00000000   -0.00165360    0.02678543
     atom    3 type  1   force =     0.00000000   -0.00165389    0.02678562
     atom    4 type  1   force =     0.00000000   -0.00165392    0.02678593
     atom    5 type  1   force =     0.00000004    0.00337644   -0.01647975
     atom    6 type  1   force =    -0.00000004    0.00337644   -0.01647975
     atom    7 type  1   force =     0.00000012    0.00337651   -0.01648002
     atom    8 type  1   force =    -0.00000012    0.00337651   -0.01648002
     atom    9 type  1   force =     0.00000000   -0.00162390   -0.00957705
     atom   10 type  1   force =     0.00000000   -0.00162400   -0.00957682
     atom   11 type  1   force =     0.00000000   -0.00162373   -0.00957709
     atom   12 type  1   force =     0.00000000   -0.00162363   -0.00957671
     atom   13 type  1   force =     0.00000000    0.00056270   -0.00381883
     atom   14 type  1   force =     0.00000000    0.00056248   -0.00381850
     atom   15 type  1   force =    -0.00000009   -0.00053501    0.00461136
     atom   16 type  1   force =     0.00000009   -0.00053501    0.00461136
     atom   17 type  1   force =     0.00000000    0.00056255   -0.00381846
     atom   18 type  1   force =     0.00000000    0.00056253   -0.00381859
     atom   19 type  1   force =    -0.00000002   -0.00053506    0.00461117
     atom   20 type  1   force =     0.00000002   -0.00053506    0.00461117
     atom   21 type  1   force =     0.00000000    0.00028204   -0.00072551
     atom   22 type  1   force =     0.00000000    0.00028191   -0.00072556
     atom   23 type  1   force =    -0.00000005   -0.00044600   -0.00049364
     atom   24 type  1   force =     0.00000000    0.00028199   -0.00072572
     atom   25 type  1   force =    -0.00000011   -0.00044604   -0.00049366
     atom   26 type  1   force =     0.00000005   -0.00044600   -0.00049364
     atom   27 type  1   force =     0.00000011   -0.00044604   -0.00049366
     atom   28 type  1   force =     0.00000000    0.00028182   -0.00072562
     atom   29 type  1   force =     0.00000002   -0.00018385    0.00040582
     atom   30 type  1   force =     0.00000000    0.00019509   -0.00055622
     atom   31 type  1   force =    -0.00000000   -0.00018373    0.00040574
     atom   32 type  1   force =     0.00000000   -0.00018373    0.00040574
     atom   33 type  1   force =    -0.00000002   -0.00018385    0.00040582
     atom   34 type  1   force =     0.00000000    0.00019495   -0.00055623
     atom   35 type  1   force =     0.00000000    0.00019519   -0.00055648
     atom   36 type  1   force =     0.00000000    0.00019526   -0.00055644
     atom   37 type  1   force =     0.00000000    0.00018576   -0.00040890
     atom   38 type  1   force =     0.00000000    0.00018569   -0.00040886
     atom   39 type  1   force =    -0.00000004   -0.00019448    0.00055507
     atom   40 type  1   force =     0.00000004   -0.00019448    0.00055507
     atom   41 type  1   force =     0.00000008   -0.00019440    0.00055507
     atom   42 type  1   force =     0.00000000    0.00018548   -0.00040913
     atom   43 type  1   force =     0.00000000    0.00018547   -0.00040914
     atom   44 type  1   force =    -0.00000008   -0.00019440    0.00055507
     atom   45 type  1   force =     0.00000000    0.00044679    0.00049807
     atom   46 type  1   force =     0.00000000    0.00044664    0.00049821
     atom   47 type  1   force =     0.00000000    0.00044695    0.00049831
     atom   48 type  1   force =     0.00000000    0.00044675    0.00049804
     atom   49 type  1   force =    -0.00000002   -0.00028127    0.00072774
     atom   50 type  1   force =     0.00000002   -0.00028127    0.00072774
     atom   51 type  1   force =    -0.00000009   -0.00028146    0.00072777
     atom   52 type  1   force =     0.00000009   -0.00028146    0.00072777
     atom   53 type  1   force =     0.00000000    0.00053621   -0.00461619
     atom   54 type  1   force =     0.00000009   -0.00056197    0.00381064
     atom   55 type  1   force =     0.00000010   -0.00056188    0.00381066
     atom   56 type  1   force =    -0.00000009   -0.00056197    0.00381064
     atom   57 type  1   force =    -0.00000010   -0.00056188    0.00381066
     atom   58 type  1   force =     0.00000000    0.00053596   -0.00461605
     atom   59 type  1   force =     0.00000000    0.00053627   -0.00461611
     atom   60 type  1   force =     0.00000000    0.00053598   -0.00461608
     atom   61 type  1   force =     0.00000015    0.00162216    0.00957560
     atom   62 type  1   force =     0.00000000   -0.00337497    0.01647770
     atom   63 type  1   force =     0.00000000   -0.00337480    0.01647786
     atom   64 type  1   force =     0.00000000   -0.00337489    0.01647769
     atom   65 type  1   force =     0.00000000   -0.00337484    0.01647760
     atom   66 type  1   force =     0.00000017    0.00162189    0.00957583
     atom   67 type  1   force =    -0.00000015    0.00162216    0.00957560
     atom   68 type  1   force =    -0.00000017    0.00162189    0.00957583
     atom   69 type  1   force =     0.00000000    0.00164856   -0.02677191
     atom   70 type  1   force =    -0.00000024    0.00164844   -0.02677139
     atom   71 type  1   force =    -0.00000000    0.00164856   -0.02677191
     atom   72 type  1   force =     0.00000024    0.00164844   -0.02677139

     Total force =     0.095295     Total SCF correction =     0.002317

     General routines

     Parallel routines

   This run was terminated on:   4:46:19   8Sep2021

   JOB DONE.