     Program PWSCF v.6.6 starts on  8Sep2021 at  5:33:55

     R & G space division:  proc/nbgrp/npool/nimage =      12
     Fft bands division:     nmany     =       1
     Reading input from ../inputs/input_ausurf_18

     Current dimensions of program PWSCF are:
     Max number of different atomic species (ntypx) = 10
     Max number of k-points (npk) =  40000
     Max angular momentum in pseudopotentials (lmaxx) =  3

     Subspace diagonalization in iterative solution of the eigenvalue problem:
     one sub-group per band group will be used

     Title:
      Ausurf

     bravais-lattice index     =            8
     lattice parameter (alat)  =       5.5747  a.u.
     unit-cell volume          =    3222.2468 (a.u.)^3
     number of atoms/cell      =           18
     number of atomic types    =            1
     number of electrons       =       198.00
     number of Kohn-Sham states=          119
     kinetic-energy cutoff     =      40.0000  Ry
     charge density cutoff     =     350.0000  Ry
     convergence threshold     =      1.0E-06
     mixing beta               =       0.7000
     number of iterations used =            8  TF        mixing
     Exchange-correlation=  SLA  PW   PBE  PBE
                           (   1   4   3   4   0   0   0)

     celldm(1)=   5.574692  celldm(2)=   1.732051  celldm(3)=  10.738300
     celldm(4)=   0.000000  celldm(5)=   0.000000  celldm(6)=   0.000000

     crystal axes: (cart. coord. in units of alat)
               a(1) = (   1.000000   0.000000   0.000000 )
               a(2) = (   0.000000   1.732051   0.000000 )
               a(3) = (   0.000000   0.000000  10.738300 )

     reciprocal axes: (cart. coord. in units 2 pi/alat)
               b(1) = (  1.000000  0.000000  0.000000 )
               b(2) = (  0.000000  0.577350  0.000000 )
               b(3) = (  0.000000  0.000000  0.093125 )

     PseudoPot. # 1 for Au read from file:
     /marconi/home/userexternal/czeni000/dft_src/pseudo/Au.pbe-nd-van.UPF
     MD5 check sum: deb5c07af10777505a79e28f5b4b4115
     Pseudo is Ultrasoft + core correction, Zval = 11.0
     Generated by new atomic code, or converted to UPF format
     Using radial grid of  985 points,  3 beta functions with:
                l(1) =   1
                l(2) =   2
                l(3) =   2
     Q(r) pseudized with  8 coefficients,  rinner =    1.100   1.100   1.100
                                                       1.100   1.100

     atomic species   valence    mass     pseudopotential
        Au            11.00   196.96000     Au( 1.00)

      2 Sym. Ops. (no inversion) found

   Cartesian axes

     site n.     atom                  positions (alat units)
         1           Au  tau(   1) = (   0.0000000   0.0000000   0.0000000  )
         2           Au  tau(   2) = (   0.5000000   0.2886753   0.8164966  )
         3           Au  tau(   3) = (   1.0000000   1.1547007   0.8164966  )
         4           Au  tau(   4) = (   1.0000000   0.5773502   1.6329932  )
         5           Au  tau(   5) = (   0.5000000   1.4433756   1.6329932  )
         6           Au  tau(   6) = (   0.0000000   0.0000000   2.4494898  )
         7           Au  tau(   7) = (   0.5000000   0.8660254   2.4494898  )
         8           Au  tau(   8) = (   0.5000000   0.2886753   3.2659864  )
         9           Au  tau(   9) = (   1.0000000   1.1547007   3.2659864  )
        10           Au  tau(  10) = (   1.0000000   0.5773502   4.0824831  )
        11           Au  tau(  11) = (   0.5000000   1.4433756   4.0824831  )
        12           Au  tau(  12) = (   0.0000000   0.0000000   4.8989793  )
        13           Au  tau(  13) = (   0.5000000   0.8660254   4.8989793  )
        14           Au  tau(  14) = (   0.5000000   0.2886753   5.7154759  )
        15           Au  tau(  15) = (   1.0000000   1.1547007   5.7154759  )
        16           Au  tau(  16) = (   1.0000000   0.5773502   6.5319725  )
        17           Au  tau(  17) = (   0.5000000   1.4433756   6.5319725  )
        18           Au  tau(  18) = (   0.5000000   0.8660254   7.3484692  )

     number of k points=    48  Marzari-Vanderbilt smearing, width (Ry)=  0.0500
                       cart. coord. in units 2pi/alat
        k(    1) = (   0.0312500   0.0240563   0.0000000), wk =   0.0416667
        k(    2) = (   0.0312500   0.0721688   0.0000000), wk =   0.0416667
        k(    3) = (   0.0312500   0.1202813   0.0000000), wk =   0.0416667
        k(    4) = (   0.0312500   0.1683938   0.0000000), wk =   0.0416667
        k(    5) = (   0.0312500   0.2165064   0.0000000), wk =   0.0416667
        k(    6) = (   0.0312500   0.2646189   0.0000000), wk =   0.0416667
        k(    7) = (   0.0937500   0.0240563   0.0000000), wk =   0.0416667
        k(    8) = (   0.0937500   0.0721688   0.0000000), wk =   0.0416667
        k(    9) = (   0.0937500   0.1202813   0.0000000), wk =   0.0416667
        k(   10) = (   0.0937500   0.1683938   0.0000000), wk =   0.0416667
        k(   11) = (   0.0937500   0.2165064   0.0000000), wk =   0.0416667
        k(   12) = (   0.0937500   0.2646189   0.0000000), wk =   0.0416667
        k(   13) = (   0.1562500   0.0240563   0.0000000), wk =   0.0416667
        k(   14) = (   0.1562500   0.0721688   0.0000000), wk =   0.0416667
        k(   15) = (   0.1562500   0.1202813   0.0000000), wk =   0.0416667
        k(   16) = (   0.1562500   0.1683938   0.0000000), wk =   0.0416667
        k(   17) = (   0.1562500   0.2165064   0.0000000), wk =   0.0416667
        k(   18) = (   0.1562500   0.2646189   0.0000000), wk =   0.0416667
        k(   19) = (   0.2187500   0.0240563   0.0000000), wk =   0.0416667
        k(   20) = (   0.2187500   0.0721688   0.0000000), wk =   0.0416667
        k(   21) = (   0.2187500   0.1202813   0.0000000), wk =   0.0416667
        k(   22) = (   0.2187500   0.1683938   0.0000000), wk =   0.0416667
        k(   23) = (   0.2187500   0.2165064   0.0000000), wk =   0.0416667
        k(   24) = (   0.2187500   0.2646189   0.0000000), wk =   0.0416667
        k(   25) = (   0.2812500   0.0240563   0.0000000), wk =   0.0416667
        k(   26) = (   0.2812500   0.0721688   0.0000000), wk =   0.0416667
        k(   27) = (   0.2812500   0.1202813   0.0000000), wk =   0.0416667
        k(   28) = (   0.2812500   0.1683938   0.0000000), wk =   0.0416667
        k(   29) = (   0.2812500   0.2165064   0.0000000), wk =   0.0416667
        k(   30) = (   0.2812500   0.2646189   0.0000000), wk =   0.0416667
        k(   31) = (   0.3437500   0.0240563   0.0000000), wk =   0.0416667
        k(   32) = (   0.3437500   0.0721688   0.0000000), wk =   0.0416667
        k(   33) = (   0.3437500   0.1202813   0.0000000), wk =   0.0416667
        k(   34) = (   0.3437500   0.1683938   0.0000000), wk =   0.0416667
        k(   35) = (   0.3437500   0.2165064   0.0000000), wk =   0.0416667
        k(   36) = (   0.3437500   0.2646189   0.0000000), wk =   0.0416667
        k(   37) = (   0.4062500   0.0240563   0.0000000), wk =   0.0416667
        k(   38) = (   0.4062500   0.0721688   0.0000000), wk =   0.0416667
        k(   39) = (   0.4062500   0.1202813   0.0000000), wk =   0.0416667
        k(   40) = (   0.4062500   0.1683938   0.0000000), wk =   0.0416667
        k(   41) = (   0.4062500   0.2165064   0.0000000), wk =   0.0416667
        k(   42) = (   0.4062500   0.2646189   0.0000000), wk =   0.0416667
        k(   43) = (   0.4687500   0.0240563   0.0000000), wk =   0.0416667
        k(   44) = (   0.4687500   0.0721688   0.0000000), wk =   0.0416667
        k(   45) = (   0.4687500   0.1202813   0.0000000), wk =   0.0416667
        k(   46) = (   0.4687500   0.1683938   0.0000000), wk =   0.0416667
        k(   47) = (   0.4687500   0.2165064   0.0000000), wk =   0.0416667
        k(   48) = (   0.4687500   0.2646189   0.0000000), wk =   0.0416667

     Initial potential from superposition of free atoms

     starting charge  197.79099, renormalised to  198.00000

     negative rho (up, down):  4.791E-01 0.000E+00
     Starting wfcs are  162 randomized atomic wfcs

     Self-consistent Calculation

     iteration #  1     ecut=    40.00 Ry     beta= 0.70
     Davidson diagonalization with overlap
     ethr =  1.00E-02,  avg # of iterations =  2.5

     Threshold (ethr) on eigenvalues was too large:
     Diagonalizing with lowered threshold

     Davidson diagonalization with overlap
     ethr =  3.36E-04,  avg # of iterations =  2.3

     negative rho (up, down):  4.551E-01 0.000E+00

     total energy              =   -1836.56892230 Ry
     estimated scf accuracy    <       0.78607431 Ry

[...]

     iteration #  3     ecut=    40.00 Ry     beta= 0.70
     Davidson diagonalization with overlap
     c_bands:  1 eigenvalues not converged
     ethr =  1.77E-04,  avg # of iterations =  2.4

[...]

     iteration # 17     ecut=    40.00 Ry     beta= 0.70
     Davidson diagonalization with overlap
     c_bands:  1 eigenvalues not converged
     ethr =  5.04E-08,  avg # of iterations =  6.3

[...]

     total energy              =   -1836.58919665 Ry
     estimated scf accuracy    <       0.00000175 Ry

     iteration # 20     ecut=    40.00 Ry     beta= 0.70
     Davidson diagonalization with overlap
     ethr =  8.83E-10,  avg # of iterations =  3.4

[...]

     End of self-consistent calculation

          k = 0.0312 0.0241 0.0000 ( 13817 PWs)   bands (ev):

    -0.8009  -0.4591   0.0375   0.6133   1.1369   1.4547   1.5756   1.5794
     1.6244   1.8591   1.8744   2.0436   2.1317   2.1747   2.2406   2.3285
     2.4869   2.4948   2.6718   3.0597   3.2687   3.3527   3.5644   3.7281
     3.7578   3.7651   3.8467   3.8893   3.8932   3.9114   3.9267   3.9333
     3.9604   3.9679   3.9828   4.0196   4.0414   4.0742   4.0859   4.0981
     4.1259   4.1712   4.1719   4.1776   4.2874   4.3105   4.3290   4.3547
     4.3708   4.3848   4.4983   4.5287   4.7033   4.7160   4.9061   5.0367
     5.1391   5.1746   5.1895   5.2079   5.2696   5.2769   5.2983   5.3377
     5.3427   5.4131   5.5007   5.5200   5.6311   5.6561   5.6748   5.7699
     5.8065   5.8535   5.9567   5.9949   6.0231   6.0640   6.1350   6.1970
     6.2214   6.2533   6.2913   6.3355   6.3409   6.3740   6.4061   6.4249
     6.4521   6.4875   6.5369   6.5722   6.5932   6.6089   6.6209   6.6379
     6.7427   6.7561   7.1434   7.9033   8.3913   8.7353   8.9554   9.0745
     9.3106   9.3207   9.6875   9.9247  10.0171  11.1480  11.3468  11.4781
    11.8941  12.0536  12.6324  12.7872  13.5058  13.8084  13.9646

[...]

          k = 0.4688 0.2646 0.0000 ( 13756 PWs)   bands (ev):

     1.6021   1.6260   1.8494   1.8531   1.8614   1.8752   2.0326   2.0482
     2.1272   2.1278   2.1503   2.1788   2.2281   2.2467   2.3193   2.3241
     2.4188   2.4385   2.4938   2.5033   2.6694   2.6930   3.0692   3.0901
     3.4475   3.4623   3.6468   3.6635   3.7781   3.7979   3.8675   3.8747
     3.9504   3.9588   4.1043   4.1093   4.1833   4.1910   4.4175   4.4422
     4.4679   4.4959   4.5330   4.5380   4.8767   4.9026   4.9515   4.9718
     5.0066   5.0327   5.2566   5.2660   5.3431   5.3781   5.5076   5.5599
     5.7383   5.7493   5.8384   5.8554   5.9735   6.0054   6.1607   6.1682
     6.1919   6.2355   6.2497   6.2631   6.2847   6.3041   6.3357   6.3392
     6.3640   6.3690   6.3841   6.4208   6.4249   6.4456   6.4508   6.4637
     6.5063   6.5087   6.5543   6.5668   6.6392   6.6643   6.6919   6.6935
     6.8185   6.8454   7.6072   8.0150   8.0951   8.4065   8.5047   8.6121
     8.8632   9.0157   9.0927   9.2884   9.5384   9.6070   9.7692   9.8552
    10.0816  10.2594  10.8439  10.8639  11.1071  11.1663  11.2569  11.3473
    11.8406  11.8896  12.5213  12.5504  12.6249  12.8437  13.4048

     the Fermi energy is     8.2694 ev

!    total energy              =   -1836.58919854 Ry
     estimated scf accuracy    <       0.00000078 Ry
     smearing contrib. (-TS)   =       0.02397866 Ry
     internal energy E=F+TS    =   -1836.61317720 Ry

     The total energy is F=E-TS. E is the sum of the following terms:
     one-electron contribution =   -8474.88283044 Ry
     hartree contribution      =    4424.66347394 Ry
     xc contribution           =    -887.75182610 Ry
     ewald contribution        =    3101.35800540 Ry

     convergence has been achieved in  20 iterations

     negative rho (up, down):  4.893E-01 0.000E+00

     Forces acting on atoms (cartesian axes, Ry/au):

     atom    1 type  1   force =     0.00000000   -0.00165899    0.02668282
     atom    2 type  1   force =     0.00000000    0.00337845   -0.01686680
     atom    3 type  1   force =     0.00000000   -0.00162314   -0.00998307
     atom    4 type  1   force =     0.00000000    0.00056398   -0.00412115
     atom    5 type  1   force =     0.00000000   -0.00053598    0.00432370
     atom    6 type  1   force =     0.00000000    0.00029340   -0.00098147
     atom    7 type  1   force =     0.00000000   -0.00044587   -0.00074502
     atom    8 type  1   force =     0.00000000   -0.00018835    0.00036592
     atom    9 type  1   force =     0.00000000    0.00019375   -0.00060950
     atom   10 type  1   force =     0.00000000    0.00019013   -0.00036955
     atom   11 type  1   force =     0.00000000   -0.00019291    0.00060711
     atom   12 type  1   force =     0.00000000    0.00044633    0.00074925
     atom   13 type  1   force =     0.00000000   -0.00029336    0.00098361
     atom   14 type  1   force =     0.00000000   -0.00056240    0.00411318
     atom   15 type  1   force =     0.00000000    0.00053682   -0.00432961
     atom   16 type  1   force =     0.00000000   -0.00337696    0.01686485
     atom   17 type  1   force =     0.00000000    0.00162167    0.00998098
     atom   18 type  1   force =     0.00000000    0.00165342   -0.02666526

     Total force =     0.047980     Total SCF correction =     0.004688

     General routines

     Parallel routines

   This run was terminated on:   5:38: 0   8Sep2021

   JOB DONE.