     Program PWSCF v.6.6 starts on  8Sep2021 at  5:20:44

     K-points division:     npool     =       2
     R & G space division:  proc/nbgrp/npool/nimage =      12
     Fft bands division:     nmany     =       1
     Reading input from ../inputs/input_ausurf_36

     Current dimensions of program PWSCF are:
     Max number of different atomic species (ntypx) = 10
     Max number of k-points (npk) =  40000
     Max angular momentum in pseudopotentials (lmaxx) =  3

     Subspace diagonalization in iterative solution of the eigenvalue problem:
     one sub-group per band group will be used

     Found symmetry operation: I + ( -0.5000  0.0000  0.0000)
     This is a supercell, fractional translations are disabled

     Title:
      Ausurf

     bravais-lattice index     =            8
     lattice parameter (alat)  =      11.1494  a.u.
     unit-cell volume          =    6444.4936 (a.u.)^3
     number of atoms/cell      =           36
     number of atomic types    =            1
     number of electrons       =       396.00
     number of Kohn-Sham states=          238
     kinetic-energy cutoff     =      40.0000  Ry
     charge density cutoff     =     350.0000  Ry
     convergence threshold     =      1.0E-06
     mixing beta               =       0.7000
     number of iterations used =            8  TF        mixing
     Exchange-correlation=  SLA  PW   PBE  PBE
                           (   1   4   3   4   0   0   0)

     celldm(1)=  11.149384  celldm(2)=   0.866025  celldm(3)=   5.369150
     celldm(4)=   0.000000  celldm(5)=   0.000000  celldm(6)=   0.000000

     crystal axes: (cart. coord. in units of alat)
               a(1) = (   1.000000   0.000000   0.000000 )
               a(2) = (   0.000000   0.866025   0.000000 )
               a(3) = (   0.000000   0.000000   5.369150 )

     reciprocal axes: (cart. coord. in units 2 pi/alat)
               b(1) = (  1.000000  0.000000  0.000000 )
               b(2) = (  0.000000  1.154701  0.000000 )
               b(3) = (  0.000000  0.000000  0.186249 )

     PseudoPot. # 1 for Au read from file:
     /marconi/home/userexternal/czeni000/dft_src/pseudo/Au.pbe-nd-van.UPF
     MD5 check sum: deb5c07af10777505a79e28f5b4b4115
     Pseudo is Ultrasoft + core correction, Zval = 11.0
     Generated by new atomic code, or converted to UPF format
     Using radial grid of  985 points,  3 beta functions with:
                l(1) =   1
                l(2) =   2
                l(3) =   2
     Q(r) pseudized with  8 coefficients,  rinner =    1.100   1.100   1.100
                                                       1.100   1.100

     atomic species   valence    mass     pseudopotential
        Au            11.00   196.96000     Au( 1.00)

      2 Sym. Ops. (no inversion) found

   Cartesian axes

     site n.     atom                  positions (alat units)
         1           Au  tau(   1) = (   0.0000000   0.0000000   0.0000000  )
         2           Au  tau(   2) = (   0.5000000   0.0000000   0.0000000  )
         3           Au  tau(   3) = (   0.2500000   0.1443376   0.4082483  )
         4           Au  tau(   4) = (   0.7500000   0.1443376   0.4082483  )
         5           Au  tau(   5) = (   0.5000000   0.5773503   0.4082483  )
         6           Au  tau(   6) = (   1.0000000   0.5773503   0.4082483  )
         7           Au  tau(   7) = (   0.5000000   0.2886751   0.8164966  )
         8           Au  tau(   8) = (   1.0000000   0.2886751   0.8164966  )
         9           Au  tau(   9) = (   0.2500000   0.7216878   0.8164966  )
        10           Au  tau(  10) = (   0.7500000   0.7216878   0.8164966  )
        11           Au  tau(  11) = (   0.0000000   0.0000000   1.2247449  )
        12           Au  tau(  12) = (   0.5000000   0.0000000   1.2247449  )
        13           Au  tau(  13) = (   0.2500000   0.4330127   1.2247449  )
        14           Au  tau(  14) = (   0.7500000   0.4330127   1.2247449  )
        15           Au  tau(  15) = (   1.0000000   0.5773503   1.6329932  )
        16           Au  tau(  16) = (   0.2500000   0.1443376   1.6329932  )
        17           Au  tau(  17) = (   0.7500000   0.1443376   1.6329932  )
        18           Au  tau(  18) = (   0.5000000   0.5773503   1.6329932  )
        19           Au  tau(  19) = (   0.5000000   0.2886751   2.0412415  )
        20           Au  tau(  20) = (   1.0000000   0.2886751   2.0412415  )
        21           Au  tau(  21) = (   0.2500000   0.7216878   2.0412415  )
        22           Au  tau(  22) = (   0.7500000   0.7216878   2.0412415  )
        23           Au  tau(  23) = (   0.0000000   0.0000000   2.4494897  )
        24           Au  tau(  24) = (   0.5000000   0.0000000   2.4494897  )
        25           Au  tau(  25) = (   0.2500000   0.4330127   2.4494897  )
        26           Au  tau(  26) = (   0.7500000   0.4330127   2.4494897  )
        27           Au  tau(  27) = (   0.2500000   0.1443376   2.8577380  )
        28           Au  tau(  28) = (   0.7500000   0.1443376   2.8577380  )
        29           Au  tau(  29) = (   0.5000000   0.5773503   2.8577380  )
        30           Au  tau(  30) = (   1.0000000   0.5773503   2.8577380  )
        31           Au  tau(  31) = (   0.5000000   0.2886751   3.2659863  )
        32           Au  tau(  32) = (   1.0000000   0.2886751   3.2659863  )
        33           Au  tau(  33) = (   0.2500000   0.7216878   3.2659863  )
        34           Au  tau(  34) = (   0.7500000   0.7216878   3.2659863  )
        35           Au  tau(  35) = (   0.2500000   0.4330127   3.6742346  )
        36           Au  tau(  36) = (   0.7500000   0.4330127   3.6742346  )

     number of k points=    36  Marzari-Vanderbilt smearing, width (Ry)=  0.0500
                       cart. coord. in units 2pi/alat
        k(    1) = (   0.0416667   0.0481125   0.0000000), wk =   0.0555556
        k(    2) = (   0.0416667   0.1443376   0.0000000), wk =   0.0555556
        k(    3) = (   0.0416667   0.2405626   0.0000000), wk =   0.0555556
        k(    4) = (   0.0416667   0.3367877   0.0000000), wk =   0.0555556
        k(    5) = (   0.0416667   0.4330127   0.0000000), wk =   0.0555556
        k(    6) = (   0.0416667   0.5292377   0.0000000), wk =   0.0555556
        k(    7) = (   0.1250000   0.0481125   0.0000000), wk =   0.0555556
        k(    8) = (   0.1250000   0.1443376   0.0000000), wk =   0.0555556
        k(    9) = (   0.1250000   0.2405626   0.0000000), wk =   0.0555556
        k(   10) = (   0.1250000   0.3367877   0.0000000), wk =   0.0555556
        k(   11) = (   0.1250000   0.4330127   0.0000000), wk =   0.0555556
        k(   12) = (   0.1250000   0.5292377   0.0000000), wk =   0.0555556
        k(   13) = (   0.2083333   0.0481125   0.0000000), wk =   0.0555556
        k(   14) = (   0.2083333   0.1443376   0.0000000), wk =   0.0555556
        k(   15) = (   0.2083333   0.2405626   0.0000000), wk =   0.0555556
        k(   16) = (   0.2083333   0.3367877   0.0000000), wk =   0.0555556
        k(   17) = (   0.2083333   0.4330127   0.0000000), wk =   0.0555556
        k(   18) = (   0.2083333   0.5292377   0.0000000), wk =   0.0555556
        k(   19) = (   0.2916667   0.0481125   0.0000000), wk =   0.0555556
        k(   20) = (   0.2916667   0.1443376   0.0000000), wk =   0.0555556
        k(   21) = (   0.2916667   0.2405626   0.0000000), wk =   0.0555556
        k(   22) = (   0.2916667   0.3367877   0.0000000), wk =   0.0555556
        k(   23) = (   0.2916667   0.4330127   0.0000000), wk =   0.0555556
        k(   24) = (   0.2916667   0.5292377   0.0000000), wk =   0.0555556
        k(   25) = (   0.3750000   0.0481125   0.0000000), wk =   0.0555556
        k(   26) = (   0.3750000   0.1443376   0.0000000), wk =   0.0555556
        k(   27) = (   0.3750000   0.2405626   0.0000000), wk =   0.0555556
        k(   28) = (   0.3750000   0.3367877   0.0000000), wk =   0.0555556
        k(   29) = (   0.3750000   0.4330127   0.0000000), wk =   0.0555556
        k(   30) = (   0.3750000   0.5292377   0.0000000), wk =   0.0555556
        k(   31) = (   0.4583333   0.0481125   0.0000000), wk =   0.0555556
        k(   32) = (   0.4583333   0.1443376   0.0000000), wk =   0.0555556
        k(   33) = (   0.4583333   0.2405626   0.0000000), wk =   0.0555556
        k(   34) = (   0.4583333   0.3367877   0.0000000), wk =   0.0555556
        k(   35) = (   0.4583333   0.4330127   0.0000000), wk =   0.0555556
        k(   36) = (   0.4583333   0.5292377   0.0000000), wk =   0.0555556

     Initial potential from superposition of free atoms

     starting charge  395.58197, renormalised to  396.00000

     negative rho (up, down):  9.582E-01 0.000E+00
     Starting wfcs are  324 randomized atomic wfcs

     Self-consistent Calculation

     iteration #  1     ecut=    40.00 Ry     beta= 0.70
     Davidson diagonalization with overlap
     ethr =  1.00E-02,  avg # of iterations =  2.6

     Threshold (ethr) on eigenvalues was too large:
     Diagonalizing with lowered threshold

     Davidson diagonalization with overlap
     ethr =  3.35E-04,  avg # of iterations =  2.9

     negative rho (up, down):  9.101E-01 0.000E+00

     total energy              =   -3673.13663775 Ry
     estimated scf accuracy    <       1.57447142 Ry

[...]

     iteration # 20     ecut=    40.00 Ry     beta= 0.70
     Davidson diagonalization with overlap
     c_bands:  1 eigenvalues not converged
     ethr =  4.15E-10,  avg # of iterations =  4.6

[...]

     total energy              =   -3673.17834885 Ry
     estimated scf accuracy    <       0.00000143 Ry

     iteration # 21     ecut=    40.00 Ry     beta= 0.70
     Davidson diagonalization with overlap
     ethr =  3.60E-10,  avg # of iterations =  3.4

[...]

     End of self-consistent calculation

          k = 0.0417 0.0481 0.0000 ( 27553 PWs)   bands (ev):

    -0.8129  -0.4712   0.0255   0.6015   1.1251   1.4435   1.5649   1.5684
     1.6144   1.8507   1.8642   2.0337   2.1255   2.1636   2.2293   2.2807
     2.3230   2.3503   2.3812   2.3917   2.4408   2.4759   2.4836   2.5152
     2.5463   2.5802   2.6416   2.6672   2.7238   2.7591   2.7907   2.8247
     2.8574   2.9404   2.9795   3.0561   3.0815   3.1172   3.1761   3.1947
     3.2140   3.2337   3.2611   3.3217   3.3318   3.3436   3.3607   3.3758
     3.4825   3.5090   3.5480   3.5628   3.5670   3.5868   3.6076   3.6908
     3.7320   3.7327   3.7657   3.7744   3.7940   3.8281   3.8525   3.8936
     3.8953   3.9021   3.9073   3.9194   3.9345   3.9389   3.9551   3.9610
     3.9636   3.9878   3.9940   4.0119   4.0425   4.0732   4.0802   4.0953
     4.0993   4.1179   4.1399   4.1646   4.1655   4.1743   4.1755   4.2067
     4.3002   4.3058   4.3144   4.3184   4.3329   4.3480   4.3672   4.3704
     4.3827   4.3944   4.5096   4.5127   4.5189   4.5249   4.6992   4.7082
     4.7251   4.7466   4.7643   4.7727   4.8820   4.8919   4.9029   4.9914
     5.0353   5.0603   5.1115   5.1243   5.1512   5.1908   5.2013   5.2236
     5.2291   5.2363   5.2704   5.2755   5.2829   5.3188   5.3321   5.3344
     5.3403   5.3472   5.4062   5.4279   5.4312   5.4608   5.4887   5.5163
     5.5452   5.5547   5.6410   5.6477   5.6785   5.6998   5.7301   5.7906
     5.8305   5.8597   5.8970   5.9250   5.9598   5.9962   6.0131   6.0976
     6.1178   6.1335   6.1658   6.1961   6.2062   6.2194   6.2346   6.2528
     6.3037   6.3278   6.3461   6.3609   6.3716   6.3777   6.3922   6.3980
     6.3989   6.4318   6.4346   6.4386   6.4651   6.4863   6.5341   6.5459
     6.5485   6.5746   6.5955   6.5990   6.6009   6.6084   6.6330   6.6380
     6.7563   6.7603   6.9121   6.9125   7.0798   7.6699   7.7970   7.8521
     8.0476   8.2771   8.3596   8.4533   8.4654   8.7138   8.7920   8.9272
     9.0402   9.0556   9.2727   9.2776   9.2965   9.6611   9.7597   9.9042
     9.9108   9.9943  10.5292  10.6509  11.1450  11.2641  11.3374  11.3823
    11.4666  11.8210  11.8825  12.0478  12.0967  12.3379  12.6160  12.6197
    12.6452  12.7872  12.8748  13.2843  13.3837  13.4641  13.4915  13.7254
    13.8096  13.8831  13.9602  13.9953  13.9999  14.0079

[...]

          k = 0.4583 0.5292 0.0000 ( 27488 PWs)   bands (ev):

     1.3568   1.5100   1.5733   1.7261   1.7270   1.7935   1.8571   1.8950
     1.9649   1.9991   2.0883   2.1578   2.1665   2.1764   2.2776   2.3046
     2.3495   2.4502   2.4523   2.5109   2.5580   2.5813   2.5934   2.6144
     2.6541   2.7198   2.7200   2.7477   2.7782   2.7939   2.8126   2.8509
     2.8555   2.8986   2.9209   2.9295   2.9842   2.9975   3.0238   3.0593
     3.0934   3.1200   3.1380   3.2088   3.2373   3.2817   3.2843   3.3002
     3.3263   3.3366   3.4167   3.4277   3.4632   3.4789   3.5267   3.5334
     3.5802   3.6090   3.6326   3.6480   3.6791   3.7092   3.7495   3.7620
     3.7760   3.8140   3.8189   3.8735   3.8738   3.9207   3.9328   3.9342
     3.9836   3.9865   4.0058   4.0218   4.0522   4.0646   4.1050   4.1141
     4.1298   4.1569   4.1664   4.1755   4.1786   4.1941   4.2151   4.2566
     4.2612   4.2654   4.2961   4.3224   4.3594   4.3696   4.3790   4.3996
     4.4013   4.4514   4.5084   4.5382   4.5484   4.5688   4.5790   4.6450
     4.6872   4.7210   4.7489   4.8254   4.8422   4.9100   4.9106   4.9353
     4.9564   4.9729   5.0192   5.0298   5.0565   5.0695   5.1385   5.1520
     5.1817   5.2160   5.2316   5.2497   5.2650   5.2854   5.2992   5.3199
     5.3219   5.3521   5.4060   5.4167   5.4186   5.4241   5.4783   5.5470
     5.5556   5.5768   5.6000   5.6589   5.6605   5.6758   5.7093   5.7245
     5.7286   5.7469   5.7607   5.8049   5.8212   5.8667   5.8823   5.8888
     5.9164   5.9405   5.9426   5.9573   5.9824   6.0109   6.0283   6.0515
     6.0724   6.0858   6.1009   6.1222   6.1292   6.1542   6.1697   6.1781
     6.2138   6.2348   6.2390   6.2596   6.2740   6.2766   6.2825   6.2944
     6.3192   6.3459   6.3472   6.3794   6.3879   6.3961   6.4043   6.4091
     6.4632   6.4699   6.4866   6.5290   6.5939   6.6047   6.6688   6.7172
     6.7854   6.7993   6.8683   6.9978   7.1344   7.2655   7.3379   7.6220
     7.8919   8.0544   8.0794   8.4061   8.7453   8.9184   8.9782   9.2563
     9.6859   9.8789   9.9775  10.2000  10.7058  10.9388  10.9853  11.2424
    12.2159  12.3718  12.5404  12.7432  13.0807  13.3230  13.4682  13.8428
    14.1443  14.1702  14.2823  14.5547  14.6908  14.8476  14.9129  14.9382
    15.0340  15.1251  15.2612  15.3227  15.3593  15.5083

     the Fermi energy is     8.2690 ev

!    total energy              =   -3673.17834911 Ry
     estimated scf accuracy    <       0.00000050 Ry
     smearing contrib. (-TS)   =       0.04736707 Ry
     internal energy E=F+TS    =   -3673.22571618 Ry

     The total energy is F=E-TS. E is the sum of the following terms:
     one-electron contribution =  -16949.52962726 Ry
     hartree contribution      =    8849.09199579 Ry
     xc contribution           =   -1775.50409552 Ry
     ewald contribution        =    6202.71601081 Ry

     convergence has been achieved in  21 iterations

     negative rho (up, down):  9.786E-01 0.000E+00

     Forces acting on atoms (cartesian axes, Ry/au):

     atom    1 type  1   force =     0.00000000   -0.00165120    0.02685520
     atom    2 type  1   force =     0.00000000   -0.00165131    0.02685563
     atom    3 type  1   force =     0.00000008    0.00335354   -0.01636816
     atom    4 type  1   force =    -0.00000008    0.00335354   -0.01636816
     atom    5 type  1   force =     0.00000000   -0.00159859   -0.00945372
     atom    6 type  1   force =     0.00000000   -0.00159853   -0.00945384
     atom    7 type  1   force =     0.00000000    0.00056095   -0.00371327
     atom    8 type  1   force =     0.00000000    0.00056100   -0.00371328
     atom    9 type  1   force =    -0.00000001   -0.00053462    0.00470269
     atom   10 type  1   force =     0.00000001   -0.00053462    0.00470269
     atom   11 type  1   force =     0.00000000    0.00028550   -0.00067243
     atom   12 type  1   force =     0.00000000    0.00028538   -0.00067241
     atom   13 type  1   force =    -0.00000000   -0.00045287   -0.00044364
     atom   14 type  1   force =     0.00000000   -0.00045287   -0.00044364
     atom   15 type  1   force =     0.00000000    0.00019732   -0.00053534
     atom   16 type  1   force =     0.00000005   -0.00018619    0.00043706
     atom   17 type  1   force =    -0.00000005   -0.00018619    0.00043706
     atom   18 type  1   force =     0.00000000    0.00019733   -0.00053533
     atom   19 type  1   force =     0.00000000    0.00018814   -0.00043989
     atom   20 type  1   force =     0.00000000    0.00018803   -0.00043996
     atom   21 type  1   force =     0.00000001   -0.00019684    0.00053449
     atom   22 type  1   force =    -0.00000001   -0.00019684    0.00053449
     atom   23 type  1   force =     0.00000000    0.00045370    0.00044826
     atom   24 type  1   force =     0.00000000    0.00045365    0.00044833
     atom   25 type  1   force =     0.00000004   -0.00028477    0.00067493
     atom   26 type  1   force =    -0.00000004   -0.00028477    0.00067493
     atom   27 type  1   force =     0.00000003   -0.00056025    0.00370562
     atom   28 type  1   force =    -0.00000003   -0.00056025    0.00370562
     atom   29 type  1   force =     0.00000000    0.00053555   -0.00470743
     atom   30 type  1   force =     0.00000000    0.00053553   -0.00470742
     atom   31 type  1   force =     0.00000000   -0.00335179    0.01636572
     atom   32 type  1   force =     0.00000000   -0.00335180    0.01636559
     atom   33 type  1   force =    -0.00000003    0.00159674    0.00945225
     atom   34 type  1   force =     0.00000003    0.00159674    0.00945225
     atom   35 type  1   force =     0.00000025    0.00164585   -0.02684244
     atom   36 type  1   force =    -0.00000025    0.00164585   -0.02684244

     Total force =     0.067308     Total SCF correction =     0.004189

     General routines

     Parallel routines

   This run was terminated on:   5:27: 8   8Sep2021

   JOB DONE.