     Program PWSCF v.6.6 starts on 24Sep2021 at 21:59:45

     K-points division:     npool     =       2
     R & G space division:  proc/nbgrp/npool/nimage =      48
     Fft bands division:     nmany     =       1
     Reading input from ../inputs/input_ausurf_576

     Current dimensions of program PWSCF are:
     Max number of different atomic species (ntypx) = 10
     Max number of k-points (npk) =  40000
     Max angular momentum in pseudopotentials (lmaxx) =  3

     Subspace diagonalization in iterative solution of the eigenvalue problem:
     one sub-group per band group will be used

     Found symmetry operation: I + (  0.1250  0.0000  0.0000)
     This is a supercell, fractional translations are disabled

     Title:
      Ausurf

     bravais-lattice index     =            8
     lattice parameter (alat)  =      44.5975  a.u.
     unit-cell volume          =  103111.8970 (a.u.)^3
     number of atoms/cell      =          576
     number of atomic types    =            1
     number of electrons       =      6336.00
     number of Kohn-Sham states=         3802
     kinetic-energy cutoff     =      40.0000  Ry
     charge density cutoff     =     350.0000  Ry
     convergence threshold     =      1.0E-06
     mixing beta               =       0.7000
     number of iterations used =            8  TF        mixing
     Exchange-correlation=  SLA  PW   PBE  PBE
                           (   1   4   3   4   0   0   0)

     celldm(1)=  44.597537  celldm(2)=   0.866025  celldm(3)=   1.342287
     celldm(4)=   0.000000  celldm(5)=   0.000000  celldm(6)=   0.000000

     crystal axes: (cart. coord. in units of alat)
               a(1) = (   1.000000   0.000000   0.000000 )
               a(2) = (   0.000000   0.866025   0.000000 )
               a(3) = (   0.000000   0.000000   1.342287 )

     reciprocal axes: (cart. coord. in units 2 pi/alat)
               b(1) = (  1.000000  0.000000  0.000000 )
               b(2) = (  0.000000  1.154701  0.000000 )
               b(3) = (  0.000000  0.000000  0.744997 )

     PseudoPot. # 1 for Au read from file:
     /marconi/home/userexternal/czeni000/dft_src/pseudo/Au.pbe-nd-van.UPF
     MD5 check sum: deb5c07af10777505a79e28f5b4b4115
     Pseudo is Ultrasoft + core correction, Zval = 11.0
     Generated by new atomic code, or converted to UPF format
     Using radial grid of  985 points,  3 beta functions with:
                l(1) =   1
                l(2) =   2
                l(3) =   2
     Q(r) pseudized with  8 coefficients,  rinner =    1.100   1.100   1.100
                                                       1.100   1.100

     atomic species   valence    mass     pseudopotential
        Au            11.00   196.96000     Au( 1.00)

      2 Sym. Ops. (no inversion) found

   Cartesian axes

     site n.     atom                  positions (alat units)
         1           Au  tau(   1) = (   0.0000000   0.0000000   0.0000000  )
         2           Au  tau(   2) = (   0.1250000   0.0000000   0.0000000  )
         3           Au  tau(   3) = (   0.2500000   0.0000000   0.0000000  )
         4           Au  tau(   4) = (   0.0000000   0.2165064   0.0000000  )
         5           Au  tau(   5) = (   0.3750000   0.0000000   0.0000000  )
         6           Au  tau(   6) = (   0.1250000   0.2165064   0.0000000  )
         7           Au  tau(   7) = (   0.5000000   0.0000000   0.0000000  )
         8           Au  tau(   8) = (   0.2500000   0.2165064   0.0000000  )
         9           Au  tau(   9) = (   0.6250000   0.0000000   0.0000000  )
        10           Au  tau(  10) = (   0.0000000   0.4330127   0.0000000  )
        11           Au  tau(  11) = (   0.3750000   0.2165064   0.0000000  )
        12           Au  tau(  12) = (   0.7500000   0.0000000   0.0000000  )
        13           Au  tau(  13) = (   0.1250000   0.4330127   0.0000000  )
        14           Au  tau(  14) = (   0.5000000   0.2165064   0.0000000  )
        15           Au  tau(  15) = (   0.8750000   0.0000000   0.0000000  )
        16           Au  tau(  16) = (   0.2500000   0.4330127   0.0000000  )
        17           Au  tau(  17) = (   0.6250000   0.2165064   0.0000000  )
        18           Au  tau(  18) = (   0.0000000   0.6495191   0.0000000  )
        19           Au  tau(  19) = (   0.3750000   0.4330127   0.0000000  )
        20           Au  tau(  20) = (   0.7500000   0.2165064   0.0000000  )
        21           Au  tau(  21) = (   0.1250000   0.6495191   0.0000000  )
        22           Au  tau(  22) = (   0.5000000   0.4330127   0.0000000  )
        23           Au  tau(  23) = (   0.8750000   0.2165064   0.0000000  )
        24           Au  tau(  24) = (   0.2500000   0.6495191   0.0000000  )
        25           Au  tau(  25) = (   0.6250000   0.4330127   0.0000000  )
        26           Au  tau(  26) = (   0.3750000   0.6495191   0.0000000  )
        27           Au  tau(  27) = (   0.7500000   0.4330127   0.0000000  )
        28           Au  tau(  28) = (   0.5000000   0.6495191   0.0000000  )
        29           Au  tau(  29) = (   0.8750000   0.4330127   0.0000000  )
        30           Au  tau(  30) = (   0.6250000   0.6495191   0.0000000  )
        31           Au  tau(  31) = (   0.7500000   0.6495191   0.0000000  )
        32           Au  tau(  32) = (   0.8750000   0.6495191   0.0000000  )
        33           Au  tau(  33) = (   0.0625000   0.0360844   0.1020621  )
        34           Au  tau(  34) = (   0.1875000   0.0360844   0.1020621  )
        35           Au  tau(  35) = (   0.3125000   0.0360844   0.1020621  )
        36           Au  tau(  36) = (   0.0625000   0.2525908   0.1020621  )
        37           Au  tau(  37) = (   0.3125000   0.2525908   0.1020621  )
        38           Au  tau(  38) = (   0.4375000   0.0360844   0.1020621  )
        39           Au  tau(  39) = (   0.6875000   0.0360844   0.1020621  )
        40           Au  tau(  40) = (   0.0625000   0.4690971   0.1020621  )
        41           Au  tau(  41) = (   0.1875000   0.2525908   0.1020621  )
        42           Au  tau(  42) = (   0.1875000   0.4690971   0.1020621  )
        43           Au  tau(  43) = (   0.4375000   0.2525908   0.1020621  )
        44           Au  tau(  44) = (   0.5625000   0.0360844   0.1020621  )
        45           Au  tau(  45) = (   0.5625000   0.2525908   0.1020621  )
        46           Au  tau(  46) = (   0.8125000   0.0360844   0.1020621  )
        47           Au  tau(  47) = (   0.9375000   0.0360844   0.1020621  )
        48           Au  tau(  48) = (   0.1250000   0.1443376   0.1020621  )
        49           Au  tau(  49) = (   0.1250000   0.3608439   0.1020621  )
        50           Au  tau(  50) = (   0.5000000   0.1443376   0.1020621  )
        51           Au  tau(  51) = (   0.1875000   0.6856034   0.1020621  )
        52           Au  tau(  52) = (   0.3125000   0.4690971   0.1020621  )
        53           Au  tau(  53) = (   0.5625000   0.4690971   0.1020621  )
        54           Au  tau(  54) = (   0.6875000   0.2525908   0.1020621  )
        55           Au  tau(  55) = (   0.9375000   0.2525908   0.1020621  )
        56           Au  tau(  56) = (   0.2500000   0.1443376   0.1020621  )
        57           Au  tau(  57) = (   0.3750000   0.1443376   0.1020621  )
        58           Au  tau(  58) = (   0.0625000   0.6856034   0.1020621  )
        59           Au  tau(  59) = (   0.3125000   0.6856034   0.1020621  )
        60           Au  tau(  60) = (   0.4375000   0.4690971   0.1020621  )
[...]
       562           Au  tau( 562) = (   0.5625000   0.1082532   0.9185586  )
       563           Au  tau( 563) = (   0.6875000   0.3247595   0.9185586  )
       564           Au  tau( 564) = (   0.8125000   0.3247595   0.9185586  )
       565           Au  tau( 565) = (   0.4375000   0.7577722   0.9185586  )
       566           Au  tau( 566) = (   0.5625000   0.7577722   0.9185586  )
       567           Au  tau( 567) = (   0.6875000   0.7577722   0.9185586  )
       568           Au  tau( 568) = (   0.8125000   0.5412659   0.9185586  )
       569           Au  tau( 569) = (   0.8125000   0.7577722   0.9185586  )
       570           Au  tau( 570) = (   0.9375000   0.5412659   0.9185586  )
       571           Au  tau( 571) = (   0.9375000   0.7577722   0.9185586  )
       572           Au  tau( 572) = (   0.1875000   0.7577722   0.9185586  )
       573           Au  tau( 573) = (   0.3125000   0.7577722   0.9185586  )
       574           Au  tau( 574) = (   0.5625000   0.5412659   0.9185586  )
       575           Au  tau( 575) = (   0.6875000   0.5412659   0.9185586  )
       576           Au  tau( 576) = (   0.9375000   0.3247595   0.9185586  )

     number of k points=     4  Marzari-Vanderbilt smearing, width (Ry)=  0.0500
                       cart. coord. in units 2pi/alat
        k(    1) = (   0.1666667   0.1924501   0.0000000), wk =   0.8888889
        k(    2) = (   0.1666667  -0.5773503   0.0000000), wk =   0.4444444
        k(    3) = (  -0.5000000   0.1924501   0.0000000), wk =   0.4444444
        k(    4) = (  -0.5000000  -0.5773503   0.0000000), wk =   0.2222222

     Initial potential from superposition of free atoms

     starting charge 6329.31153, renormalised to 6336.00000

     negative rho (up, down):  1.536E+01 0.000E+00
     Starting wfcs are 5184 randomized atomic wfcs

     Self-consistent Calculation

     iteration #  1     ecut=    40.00 Ry     beta= 0.70
     Davidson diagonalization with overlap
     ethr =  1.00E-02,  avg # of iterations =  3.0

     Threshold (ethr) on eigenvalues was too large:
     Diagonalizing with lowered threshold

     Davidson diagonalization with overlap
     ethr =  3.34E-04,  avg # of iterations =  3.2

     negative rho (up, down):  1.461E+01 0.000E+00

     total energy              =  -58770.14184438 Ry
     estimated scf accuracy    <      25.27989570 Ry

[...]

     iteration #  4     ecut=    40.00 Ry     beta= 0.70
     Davidson diagonalization with overlap
     c_bands:  1 eigenvalues not converged
     ethr =  1.04E-04,  avg # of iterations = 14.2

[...]

     iteration #  5     ecut=    40.00 Ry     beta= 0.70
     Davidson diagonalization with overlap
     c_bands:  5 eigenvalues not converged
     ethr =  5.10E-05,  avg # of iterations = 17.8

[...]

     total energy              =  -58770.85358189 Ry
     estimated scf accuracy    <       0.00001254 Ry

     iteration # 22     ecut=    40.00 Ry     beta= 0.70
     Davidson diagonalization with overlap
     ethr =  1.98E-10,  avg # of iterations =  2.2

[...]

     End of self-consistent calculation

          k = 0.1667 0.1925 0.0000 (440477 PWs)   bands (ev):

    -0.8131  -0.5877  -0.5140  -0.4714  -0.3682  -0.2965  -0.2498  -0.2264
    -0.1780  -0.0868  -0.0351  -0.0153   0.0253   0.0344   0.1019   0.1856
     0.2372   0.2426   0.2536   0.3062   0.3116   0.4509   0.4899   0.4983
     0.5169   0.5490   0.5639   0.5801   0.6014   0.6349   0.7097   0.7194
     0.7499   0.7751   0.7832   0.8162   0.8243   0.8361   0.8820   0.9222
     0.9339   0.9538   0.9649   0.9950   1.0078   1.0166   1.0198   1.0258
[...]
     1.8520   1.8535   1.8545   1.8555   1.8570   1.8581   1.8640   1.8681
     1.8812   1.8820   1.8897   1.8924   1.8935   1.8948   1.9101   1.9116
     1.9217   1.9268   1.9300   1.9309   1.9354   1.9391   1.9416   1.9441
     1.9454   1.9454   1.9475   1.9507   1.9644   1.9648   1.9684   1.9728
     1.9729   1.9843   1.9846   1.9863   1.9922   1.9971   1.9989   1.9997
     2.0082   2.0087   2.0094   2.0103   2.0132   2.0149   2.0217   2.0283
     2.0301   2.0335   2.0381   2.0382   2.0405   2.0426   2.0434   2.0465
     2.0559   2.0591   2.0657   2.0741   2.0844   2.0853   2.0861   2.0882
     2.0885   2.0945   2.0982   2.1026   2.1076   2.1096   2.1105   2.1113
     2.1128   2.1219   2.1226   2.1253   2.1271   2.1290   2.1325   2.1377
     2.1385   2.1386   2.1413   2.1440   2.1457   2.1465   2.1515   2.1519
     2.1576   2.1595   2.1615   2.1635   2.1655   2.1663   2.1684   2.1687
     2.1713   2.1762   2.1781   2.1824   2.1856   2.1961   2.1975   2.1983
     2.1984   2.2005   2.2042   2.2124   2.2149   2.2166   2.2186   2.2189
     2.2245   2.2256   2.2292   2.2301   2.2307   2.2313   2.2339   2.2341
     2.2355   2.2381   2.2414   2.2416   2.2428   2.2441   2.2444   2.2449
     2.2476   2.2485   2.2511   2.2590   2.2733   2.2774   2.2802   2.2805
     2.2885   2.2891   2.2905   2.2929   2.3018   2.3026   2.3036   2.3044
     2.3079   2.3079   2.3085   2.3099   2.3146   2.3159   2.3179   2.3179
     2.3194   2.3228   2.3253   2.3259   2.3261   2.3293   2.3317   2.3317
     2.3326   2.3336   2.3374   2.3381   2.3403   2.3432   2.3435   2.3437
     2.3448   2.3476   2.3494   2.3501   2.3548   2.3552   2.3558   2.3579
     2.3627   2.3653   2.3698   2.3700   2.3708   2.3755   2.3764   2.3806
     2.3809   2.3824   2.3832   2.3854   2.3914   2.3928   2.3990   2.4008
     2.4062   2.4079   2.4114   2.4117   2.4121   2.4162   2.4165   2.4223
     2.4229   2.4262   2.4262   2.4264   2.4281   2.4282   2.4283   2.4301
     2.4305   2.4305   2.4336   2.4364   2.4392   2.4395   2.4406   2.4482
     2.4493   2.4501   2.4514   2.4521   2.4561   2.4602   2.4618   2.4664
     2.4669   2.4676   2.4684   2.4699   2.4742   2.4757   2.4758   2.4765
     2.4836   2.4837   2.4850   2.4856   2.4877   2.4886   2.4889   2.4952
     2.4984   2.5037   2.5087   2.5095   2.5108   2.5134   2.5135   2.5150
     2.5195   2.5201   2.5244   2.5290   2.5321   2.5357   2.5370   2.5375
     2.5378   2.5392   2.5429   2.5461   2.5473   2.5475   2.5511   2.5521
     2.5533   2.5555   2.5578   2.5601   2.5626   2.5641   2.5646   2.5680
     2.5680   2.5682   2.5686   2.5740   2.5756   2.5775   2.5777   2.5800
     2.5800   2.5811   2.5824   2.5866   2.5879   2.5904   2.5915   2.5923
     2.5926   2.5932   2.5943   2.5962   2.5981   2.5985   2.5985   2.5990
     2.6021   2.6071   2.6139   2.6142   2.6168   2.6190   2.6206   2.6207
     2.6210   2.6233   2.6338   2.6351   2.6414   2.6432   2.6452   2.6452
     2.6540   2.6548   2.6573   2.6590   2.6599   2.6613   2.6635   2.6636
     2.6671   2.6682   2.6687   2.6699   2.6730   2.6782   2.6791   2.6804
     2.6823   2.6823   2.6845   2.6894   2.6914   2.6932   2.6941   2.6979
     2.6988   2.7012   2.7039   2.7047   2.7049   2.7085   2.7103   2.7148
     2.7163   2.7165   2.7196   2.7198   2.7235   2.7236   2.7266   2.7282
[...]
    13.7253  13.7457  13.7484  13.7550  13.7556  13.7601  13.7614  13.7659
    13.7664  13.7671  13.7674  13.8017  13.8095  13.8098  13.8181  13.8225
    13.8264  13.8267  13.8336  13.8358  13.8406  13.8432  13.8820  13.8830
    13.8851  13.8899  13.8961  13.9143  13.9292  13.9333  13.9336  13.9392
    13.9446  13.9525  13.9554  13.9578  13.9605  13.9644  13.9924  13.9951
    13.9963  14.0019  14.0038  14.0078  14.0122  14.0278  14.0388  14.0430
    14.0491  14.0697  14.0744  14.0904  14.0911  14.0994  14.1014  14.1040
    14.1099  14.1117  14.1279  14.1305  14.1425  14.1447  14.1546  14.1632
    14.1705  14.1716  14.1902  14.1920  14.2008  14.2038  14.2054  14.2311
    14.2434  14.2439  14.2494  14.2538  14.2714  14.2788  14.2823  14.2948
    14.3161  14.3199  14.3237  14.3392  14.3712  14.3737  14.3753  14.3759
    14.3762  14.3775  14.3828  14.3917  14.4018  14.4035  14.4086  14.4103
    14.4230  14.4231  14.4281  14.4882  14.4937  14.4988  14.5001  14.5021
    14.5055  14.5310  14.5339  14.5482  14.5516  14.5549  14.5567  14.5574
    14.5975  14.6929

          k = 0.1667-0.5774 0.0000 (440444 PWs)   bands (ev):

[...]

          k =-0.5000 0.1925 0.0000 (440450 PWs)   bands (ev):

[...]

          k =-0.5000-0.5774 0.0000 (440632 PWs)   bands (ev):

    -0.6373  -0.6373  -0.6373  -0.6373  -0.2986  -0.2986  -0.2986  -0.2986
     0.0042   0.0042   0.0042   0.0042   0.1947   0.1947   0.1947   0.1947
     0.2061   0.2061   0.2061   0.2061   0.3248   0.3248   0.3248   0.3248
     0.5169   0.5169   0.5169   0.5169   0.7647   0.7647   0.7647   0.7647
     0.7685   0.7685   0.7685   0.7685   0.7923   0.7923   0.7923   0.7923
     0.9682   0.9682   0.9682   0.9682   1.0399   1.0399   1.0399   1.0399
     1.0800   1.0800   1.0800   1.0800   1.2911   1.2911   1.2911   1.2911
     1.3255   1.3255   1.3255   1.3255   1.3419   1.3419   1.3419   1.3419
     1.3785   1.3785   1.3785   1.3785   1.4108   1.4108   1.4108   1.4108
     1.4341   1.4341   1.4341   1.4341   1.4915   1.4915   1.4915   1.4915
     1.6012   1.6012   1.6012   1.6012   1.6105   1.6105   1.6105   1.6105
     1.6115   1.6115   1.6115   1.6115   1.6406   1.6406   1.6406   1.6406
     1.6656   1.6656   1.6656   1.6656   1.6682   1.6682   1.6682   1.6682
     1.7138   1.7138   1.7138   1.7138   1.7255   1.7255   1.7255   1.7255
     1.7565   1.7565   1.7565   1.7565   1.8474   1.8474   1.8474   1.8474
     1.8526   1.8526   1.8526   1.8526   1.8592   1.8592   1.8592   1.8592
     1.8860   1.8860   1.8860   1.8860   1.8928   1.8928   1.8928   1.8928
     1.9154   1.9154   1.9154   1.9154   1.9237   1.9237   1.9237   1.9237
     1.9329   1.9329   1.9329   1.9329   1.9383   1.9383   1.9383   1.9383
     1.9570   1.9570   1.9570   1.9570   1.9642   1.9642   1.9642   1.9642
     1.9895   1.9895   1.9895   1.9895   1.9965   1.9965   1.9965   1.9965
     2.0033   2.0033   2.0033   2.0033   2.0398   2.0398   2.0398   2.0398
     2.0443   2.0443   2.0443   2.0443   2.0488   2.0488   2.0488   2.0488
     2.0800   2.0800   2.0800   2.0800   2.0952   2.0952   2.0952   2.0952
     2.1096   2.1096   2.1096   2.1096   2.1160   2.1160   2.1160   2.1160
     2.1471   2.1471   2.1471   2.1471   2.1634   2.1634   2.1634   2.1634
     2.1645   2.1645   2.1645   2.1645   2.1684   2.1684   2.1684   2.1684
     2.1798   2.1798   2.1798   2.1798   2.1979   2.1979   2.1979   2.1979
     2.1980   2.1980   2.1980   2.1980   2.2064   2.2064   2.2064   2.2064
     2.2130   2.2130   2.2130   2.2130   2.2214   2.2214   2.2214   2.2214
     2.2216   2.2216   2.2216   2.2216   2.2220   2.2220   2.2220   2.2220
     2.2320   2.2320   2.2320   2.2320   2.2386   2.2386   2.2386   2.2386
     2.2392   2.2392   2.2392   2.2392   2.2534   2.2534   2.2534   2.2534
     2.2607   2.2607   2.2607   2.2607   2.2715   2.2715   2.2715   2.2715
     2.2760   2.2760   2.2760   2.2760   2.3134   2.3134   2.3134   2.3134
     2.3211   2.3211   2.3211   2.3211   2.3213   2.3213   2.3213   2.3213
     2.3216   2.3216   2.3216   2.3216   2.3233   2.3233   2.3233   2.3233
     2.3503   2.3503   2.3503   2.3503   2.3721   2.3721   2.3721   2.3721
     2.3755   2.3755   2.3755   2.3755   2.3769   2.3769   2.3769   2.3769
     2.3832   2.3832   2.3832   2.3832   2.3857   2.3857   2.3857   2.3857
     2.3881   2.3881   2.3881   2.3881   2.3928   2.3928   2.3928   2.3928
     2.3940   2.3940   2.3940   2.3940   2.3944   2.3944   2.3944   2.3944
     2.3982   2.3982   2.3982   2.3982   2.4169   2.4169   2.4169   2.4169
     2.4658   2.4658   2.4658   2.4658   2.4676   2.4676   2.4676   2.4676
     2.4785   2.4785   2.4785   2.4785   2.4792   2.4792   2.4792   2.4792
     2.4841   2.4841   2.4841   2.4841   2.4958   2.4958   2.4958   2.4958
     2.5095   2.5095   2.5095   2.5095   2.5110   2.5110   2.5110   2.5110
     2.5287   2.5287   2.5287   2.5287   2.5327   2.5327   2.5327   2.5327
     2.5413   2.5413   2.5413   2.5413   2.5440   2.5440   2.5440   2.5440
     2.5525   2.5525   2.5525   2.5525   2.5598   2.5598   2.5598   2.5598
     2.5643   2.5643   2.5643   2.5643   2.5707   2.5707   2.5707   2.5707
     2.5865   2.5865   2.5865   2.5865   2.5930   2.5930   2.5930   2.5930
     2.6064   2.6064   2.6064   2.6064   2.6085   2.6085   2.6085   2.6085
     2.6154   2.6154   2.6154   2.6154   2.6237   2.6237   2.6237   2.6237
     2.6275   2.6275   2.6275   2.6275   2.6331   2.6331   2.6331   2.6331
     2.6569   2.6569   2.6569   2.6569   2.6827   2.6827   2.6827   2.6827
     2.6863   2.6863   2.6863   2.6863   2.6871   2.6871   2.6871   2.6871
     2.6936   2.6936   2.6936   2.6936   2.6983   2.6983   2.6983   2.6983
     2.7088   2.7088   2.7088   2.7088   2.7136   2.7136   2.7136   2.7136
     2.7138   2.7138   2.7138   2.7138   2.7268   2.7268   2.7268   2.7268
[...]
    13.6820  13.6820  13.6820  13.6820  13.7384  13.7384  13.7384  13.7384
    13.7530  13.7530  13.7530  13.7530  13.7952  13.7952  13.7952  13.7952
    13.8495  13.8495  13.8495  13.8495  13.8777  13.8777  13.8777  13.8777
    13.9056  13.9056  13.9056  13.9056  13.9626  13.9626  13.9626  13.9626
    14.0026  14.0026  14.0026  14.0026  14.0164  14.0164  14.0164  14.0164
    14.0574  14.0574  14.0574  14.0574  14.1043  14.1043  14.1043  14.1043
    14.1441  14.1441  14.1441  14.1441  14.1653  14.1653  14.1653  14.1653
    14.1877  14.1877  14.1877  14.1877  14.2005  14.2005  14.2005  14.2005
    14.2165  14.2165  14.2165  14.2165  14.2192  14.2192  14.2192  14.2192
    14.2341  14.2341  14.2341  14.2341  14.2535  14.2535  14.2535  14.2535
    14.2643  14.2643  14.2643  14.2643  14.3137  14.3137  14.3137  14.3137
    14.4198  14.4198  14.4198  14.4198  14.4375  14.4375  14.4375  14.4375
    14.5467  14.5467  14.5467  14.5467  14.5651  14.5651  14.5651  14.5651
    14.6124  14.6125  14.6137  14.6138  14.6138  14.6138  14.6766  14.6766
    14.6766  14.6766

     the Fermi energy is     8.2690 ev

!    total energy              =  -58770.85358503 Ry
     estimated scf accuracy    <       0.00000049 Ry
     smearing contrib. (-TS)   =       0.75878428 Ry
     internal energy E=F+TS    =  -58771.61236931 Ry

     The total energy is F=E-TS. E is the sum of the following terms:
     one-electron contribution = -271194.39911732 Ry
     hartree contribution      =  141587.39685612 Ry
     xc contribution           =  -28408.06624522 Ry
     ewald contribution        =   99243.45613710 Ry

     convergence has been achieved in  22 iterations

     negative rho (up, down):  1.567E+01 0.000E+00

     Forces acting on atoms (cartesian axes, Ry/au):

     atom    1 type  1   force =     0.00000000   -0.00165198    0.02670454
     atom    2 type  1   force =    -0.00000182   -0.00165197    0.02670215
     atom    3 type  1   force =     0.00000014   -0.00165356    0.02670219
     atom    4 type  1   force =     0.00000000   -0.00165181    0.02670445
     atom    5 type  1   force =     0.00000231   -0.00165191    0.02670197
     atom    6 type  1   force =    -0.00000202   -0.00165175    0.02670204
     atom    7 type  1   force =     0.00000000   -0.00165200    0.02670409
     atom    8 type  1   force =     0.00000008   -0.00165337    0.02670210
     atom    9 type  1   force =    -0.00000231   -0.00165191    0.02670197
     atom   10 type  1   force =     0.00000000   -0.00165163    0.02670413
     atom   11 type  1   force =     0.00000216   -0.00165197    0.02670215
     atom   12 type  1   force =    -0.00000014   -0.00165356    0.02670219
     atom   13 type  1   force =    -0.00000207   -0.00165169    0.02670217
     atom   14 type  1   force =     0.00000000   -0.00165177    0.02670410
     atom   15 type  1   force =     0.00000182   -0.00165197    0.02670215
     atom   16 type  1   force =     0.00000001   -0.00165324    0.02670192
     atom   17 type  1   force =    -0.00000216   -0.00165197    0.02670215
     atom   18 type  1   force =     0.00000000   -0.00165184    0.02670415
     atom   19 type  1   force =     0.00000216   -0.00165172    0.02670192
     atom   20 type  1   force =    -0.00000008   -0.00165337    0.02670210
     atom   21 type  1   force =    -0.00000198   -0.00165182    0.02670207
     atom   22 type  1   force =     0.00000000   -0.00165198    0.02670425
     atom   23 type  1   force =     0.00000202   -0.00165175    0.02670204
     atom   24 type  1   force =     0.00000004   -0.00165340    0.02670200
     atom   25 type  1   force =    -0.00000216   -0.00165172    0.02670192
     atom   26 type  1   force =     0.00000227   -0.00165182    0.02670207
     atom   27 type  1   force =    -0.00000001   -0.00165324    0.02670192
     atom   28 type  1   force =     0.00000000   -0.00165181    0.02670412
     atom   29 type  1   force =     0.00000207   -0.00165169    0.02670217
     atom   30 type  1   force =    -0.00000227   -0.00165182    0.02670207
     atom   31 type  1   force =    -0.00000004   -0.00165340    0.02670200
     atom   32 type  1   force =     0.00000198   -0.00165182    0.02670207
     atom   33 type  1   force =    -0.00000240    0.00336425   -0.01659618
     atom   34 type  1   force =    -0.00000246    0.00336350   -0.01659597
     atom   35 type  1   force =     0.00000262    0.00336348   -0.01659603
     atom   36 type  1   force =    -0.00000239    0.00336433   -0.01659615
     atom   37 type  1   force =     0.00000258    0.00336352   -0.01659592
     atom   38 type  1   force =     0.00000250    0.00336426   -0.01659639
     atom   39 type  1   force =    -0.00000262    0.00336348   -0.01659603
     atom   40 type  1   force =    -0.00000240    0.00336452   -0.01659616
     atom   41 type  1   force =    -0.00000252    0.00336353   -0.01659585
     atom   42 type  1   force =    -0.00000252    0.00336366   -0.01659600
     atom   43 type  1   force =     0.00000250    0.00336426   -0.01659629
     atom   44 type  1   force =    -0.00000250    0.00336426   -0.01659639
     atom   45 type  1   force =    -0.00000250    0.00336426   -0.01659629
     atom   46 type  1   force =     0.00000246    0.00336350   -0.01659597
     atom   47 type  1   force =     0.00000240    0.00336425   -0.01659618
     atom   48 type  1   force =    -0.00000218   -0.00160506   -0.00969243
     atom   49 type  1   force =    -0.00000225   -0.00160485   -0.00969258
     atom   50 type  1   force =     0.00000000   -0.00160513   -0.00969106
     atom   51 type  1   force =    -0.00000250    0.00336355   -0.01659602
     atom   52 type  1   force =     0.00000259    0.00336365   -0.01659600
     atom   53 type  1   force =    -0.00000251    0.00336451   -0.01659629
     atom   54 type  1   force =    -0.00000258    0.00336352   -0.01659592
     atom   55 type  1   force =     0.00000239    0.00336433   -0.01659615
     atom   56 type  1   force =     0.00000013   -0.00160507   -0.00969428
     atom   57 type  1   force =     0.00000233   -0.00160506   -0.00969258
     atom   58 type  1   force =    -0.00000241    0.00336432   -0.01659625
     atom   59 type  1   force =     0.00000261    0.00336362   -0.01659604
     atom   60 type  1   force =     0.00000251    0.00336451   -0.01659629
[...]
     atom  562 type  1   force =    -0.00000040    0.00165015   -0.02668838
     atom  563 type  1   force =     0.00000111    0.00164799   -0.02669162
     atom  564 type  1   force =    -0.00000153    0.00164776   -0.02669159
     atom  565 type  1   force =     0.00000019    0.00165022   -0.02668817
     atom  566 type  1   force =    -0.00000019    0.00165022   -0.02668817
     atom  567 type  1   force =     0.00000089    0.00164789   -0.02669164
     atom  568 type  1   force =    -0.00000132    0.00164791   -0.02669155
     atom  569 type  1   force =    -0.00000145    0.00164800   -0.02669177
     atom  570 type  1   force =     0.00000017    0.00165008   -0.02668870
     atom  571 type  1   force =     0.00000023    0.00165030   -0.02668847
     atom  572 type  1   force =     0.00000145    0.00164800   -0.02669177
     atom  573 type  1   force =    -0.00000089    0.00164789   -0.02669164
     atom  574 type  1   force =    -0.00000047    0.00165030   -0.02668824
     atom  575 type  1   force =     0.00000096    0.00164787   -0.02669143
     atom  576 type  1   force =     0.00000018    0.00165020   -0.02668844

     Total force =     0.269705     Total SCF correction =     0.003461

     General routines

     Parallel routines

   This run was terminated on:   5: 7:34  25Sep2021

   JOB DONE.