     Program PWSCF v.6.6 starts on 23Sep2021 at 14:18:21

     R & G space division:  proc/nbgrp/npool/nimage =     192
     Fft bands division:     nmany     =       1
     Reading input from ../inputs/input_ausurf_576

     Current dimensions of program PWSCF are:
     Max number of different atomic species (ntypx) = 10
     Max number of k-points (npk) =  40000
     Max angular momentum in pseudopotentials (lmaxx) =  3

     Subspace diagonalization in iterative solution of the eigenvalue problem:
     one sub-group per band group will be used

     Found symmetry operation: I + (  0.1250  0.0000  0.0000)
     This is a supercell, fractional translations are disabled

     Title:
      Ausurf

     bravais-lattice index     =            8
     lattice parameter (alat)  =      44.5975  a.u.
     unit-cell volume          =  103111.8970 (a.u.)^3
     number of atoms/cell      =          576
     number of atomic types    =            1
     number of electrons       =      6336.00
     number of Kohn-Sham states=         3802
     kinetic-energy cutoff     =      40.0000  Ry
     charge density cutoff     =     350.0000  Ry
     convergence threshold     =      1.0E-06
     mixing beta               =       0.7000
     number of iterations used =            8  TF        mixing
     Exchange-correlation=  SLA  PW   PBE  PBE
                           (   1   4   3   4   0   0   0)

     celldm(1)=  44.597537  celldm(2)=   0.866025  celldm(3)=   1.342287
     celldm(4)=   0.000000  celldm(5)=   0.000000  celldm(6)=   0.000000

     crystal axes: (cart. coord. in units of alat)
               a(1) = (   1.000000   0.000000   0.000000 )
               a(2) = (   0.000000   0.866025   0.000000 )
               a(3) = (   0.000000   0.000000   1.342287 )

     reciprocal axes: (cart. coord. in units 2 pi/alat)
               b(1) = (  1.000000  0.000000  0.000000 )
               b(2) = (  0.000000  1.154701  0.000000 )
               b(3) = (  0.000000  0.000000  0.744997 )

     PseudoPot. # 1 for Au read from file:
     /marconi/home/userexternal/czeni000/dft_src/pseudo/Au.pbe-nd-van.UPF
     MD5 check sum: deb5c07af10777505a79e28f5b4b4115
     Pseudo is Ultrasoft + core correction, Zval = 11.0
     Generated by new atomic code, or converted to UPF format
     Using radial grid of  985 points,  3 beta functions with:
                l(1) =   1
                l(2) =   2
                l(3) =   2
     Q(r) pseudized with  8 coefficients,  rinner =    1.100   1.100   1.100
                                                       1.100   1.100

     atomic species   valence    mass     pseudopotential
        Au            11.00   196.96000     Au( 1.00)

      2 Sym. Ops. (no inversion) found

   Cartesian axes

     site n.     atom                  positions (alat units)
         1           Au  tau(   1) = (   0.0000000   0.0000000   0.0000000  )
         2           Au  tau(   2) = (   0.1250000   0.0000000   0.0000000  )
         3           Au  tau(   3) = (   0.2500000   0.0000000   0.0000000  )
         4           Au  tau(   4) = (   0.0000000   0.2165064   0.0000000  )
         5           Au  tau(   5) = (   0.3750000   0.0000000   0.0000000  )
         6           Au  tau(   6) = (   0.1250000   0.2165064   0.0000000  )
         7           Au  tau(   7) = (   0.5000000   0.0000000   0.0000000  )
         8           Au  tau(   8) = (   0.2500000   0.2165064   0.0000000  )
         9           Au  tau(   9) = (   0.6250000   0.0000000   0.0000000  )
        10           Au  tau(  10) = (   0.0000000   0.4330127   0.0000000  )
        11           Au  tau(  11) = (   0.3750000   0.2165064   0.0000000  )
        12           Au  tau(  12) = (   0.7500000   0.0000000   0.0000000  )
        13           Au  tau(  13) = (   0.1250000   0.4330127   0.0000000  )
        14           Au  tau(  14) = (   0.5000000   0.2165064   0.0000000  )
        15           Au  tau(  15) = (   0.8750000   0.0000000   0.0000000  )
        16           Au  tau(  16) = (   0.2500000   0.4330127   0.0000000  )
        17           Au  tau(  17) = (   0.6250000   0.2165064   0.0000000  )
        18           Au  tau(  18) = (   0.0000000   0.6495191   0.0000000  )
        19           Au  tau(  19) = (   0.3750000   0.4330127   0.0000000  )
        20           Au  tau(  20) = (   0.7500000   0.2165064   0.0000000  )
        21           Au  tau(  21) = (   0.1250000   0.6495191   0.0000000  )
        22           Au  tau(  22) = (   0.5000000   0.4330127   0.0000000  )
        23           Au  tau(  23) = (   0.8750000   0.2165064   0.0000000  )
        24           Au  tau(  24) = (   0.2500000   0.6495191   0.0000000  )
        25           Au  tau(  25) = (   0.6250000   0.4330127   0.0000000  )
        26           Au  tau(  26) = (   0.3750000   0.6495191   0.0000000  )
        27           Au  tau(  27) = (   0.7500000   0.4330127   0.0000000  )
        28           Au  tau(  28) = (   0.5000000   0.6495191   0.0000000  )
        29           Au  tau(  29) = (   0.8750000   0.4330127   0.0000000  )
        30           Au  tau(  30) = (   0.6250000   0.6495191   0.0000000  )
        31           Au  tau(  31) = (   0.7500000   0.6495191   0.0000000  )
        32           Au  tau(  32) = (   0.8750000   0.6495191   0.0000000  )
        33           Au  tau(  33) = (   0.0625000   0.0360844   0.1020621  )
        34           Au  tau(  34) = (   0.1875000   0.0360844   0.1020621  )
        35           Au  tau(  35) = (   0.3125000   0.0360844   0.1020621  )
        36           Au  tau(  36) = (   0.0625000   0.2525908   0.1020621  )
        37           Au  tau(  37) = (   0.3125000   0.2525908   0.1020621  )
        38           Au  tau(  38) = (   0.4375000   0.0360844   0.1020621  )
        39           Au  tau(  39) = (   0.6875000   0.0360844   0.1020621  )
        40           Au  tau(  40) = (   0.0625000   0.4690971   0.1020621  )
        41           Au  tau(  41) = (   0.1875000   0.2525908   0.1020621  )
        42           Au  tau(  42) = (   0.1875000   0.4690971   0.1020621  )
        43           Au  tau(  43) = (   0.4375000   0.2525908   0.1020621  )
        44           Au  tau(  44) = (   0.5625000   0.0360844   0.1020621  )
        45           Au  tau(  45) = (   0.5625000   0.2525908   0.1020621  )
        46           Au  tau(  46) = (   0.8125000   0.0360844   0.1020621  )
        47           Au  tau(  47) = (   0.9375000   0.0360844   0.1020621  )
        48           Au  tau(  48) = (   0.1250000   0.1443376   0.1020621  )
        49           Au  tau(  49) = (   0.1250000   0.3608439   0.1020621  )
        50           Au  tau(  50) = (   0.5000000   0.1443376   0.1020621  )
        51           Au  tau(  51) = (   0.1875000   0.6856034   0.1020621  )
        52           Au  tau(  52) = (   0.3125000   0.4690971   0.1020621  )
        53           Au  tau(  53) = (   0.5625000   0.4690971   0.1020621  )
        54           Au  tau(  54) = (   0.6875000   0.2525908   0.1020621  )
        55           Au  tau(  55) = (   0.9375000   0.2525908   0.1020621  )
        56           Au  tau(  56) = (   0.2500000   0.1443376   0.1020621  )
        57           Au  tau(  57) = (   0.3750000   0.1443376   0.1020621  )
        58           Au  tau(  58) = (   0.0625000   0.6856034   0.1020621  )
        59           Au  tau(  59) = (   0.3125000   0.6856034   0.1020621  )
        60           Au  tau(  60) = (   0.4375000   0.4690971   0.1020621  )
[...]
       562           Au  tau( 562) = (   0.5625000   0.1082532   0.9185586  )
       563           Au  tau( 563) = (   0.6875000   0.3247595   0.9185586  )
       564           Au  tau( 564) = (   0.8125000   0.3247595   0.9185586  )
       565           Au  tau( 565) = (   0.4375000   0.7577722   0.9185586  )
       566           Au  tau( 566) = (   0.5625000   0.7577722   0.9185586  )
       567           Au  tau( 567) = (   0.6875000   0.7577722   0.9185586  )
       568           Au  tau( 568) = (   0.8125000   0.5412659   0.9185586  )
       569           Au  tau( 569) = (   0.8125000   0.7577722   0.9185586  )
       570           Au  tau( 570) = (   0.9375000   0.5412659   0.9185586  )
       571           Au  tau( 571) = (   0.9375000   0.7577722   0.9185586  )
       572           Au  tau( 572) = (   0.1875000   0.7577722   0.9185586  )
       573           Au  tau( 573) = (   0.3125000   0.7577722   0.9185586  )
       574           Au  tau( 574) = (   0.5625000   0.5412659   0.9185586  )
       575           Au  tau( 575) = (   0.6875000   0.5412659   0.9185586  )
       576           Au  tau( 576) = (   0.9375000   0.3247595   0.9185586  )

     number of k points=     4  Marzari-Vanderbilt smearing, width (Ry)=  0.0500
                       cart. coord. in units 2pi/alat
        k(    1) = (   0.1666667   0.1924501   0.0000000), wk =   0.8888889
        k(    2) = (   0.1666667  -0.5773503   0.0000000), wk =   0.4444444
        k(    3) = (  -0.5000000   0.1924501   0.0000000), wk =   0.4444444
        k(    4) = (  -0.5000000  -0.5773503   0.0000000), wk =   0.2222222

     Initial potential from superposition of free atoms

     starting charge 6329.31153, renormalised to 6336.00000

     negative rho (up, down):  1.536E+01 0.000E+00
     Starting wfcs are 5184 randomized atomic wfcs

     Self-consistent Calculation

     iteration #  1     ecut=    40.00 Ry     beta= 0.70
     Davidson diagonalization with overlap
     ethr =  1.00E-02,  avg # of iterations =  3.0

     Threshold (ethr) on eigenvalues was too large:
     Diagonalizing with lowered threshold

     Davidson diagonalization with overlap
     ethr =  3.34E-04,  avg # of iterations =  3.8

     negative rho (up, down):  1.461E+01 0.000E+00

     total energy              =  -58770.14164948 Ry
     estimated scf accuracy    <      25.28077310 Ry

[...]

     iteration #  5     ecut=    40.00 Ry     beta= 0.70
     Davidson diagonalization with overlap
     c_bands:  3 eigenvalues not converged
     ethr =  5.09E-05,  avg # of iterations = 16.2

[...]

     iteration # 19     ecut=    40.00 Ry     beta= 0.70
     Davidson diagonalization with overlap
     c_bands:  1 eigenvalues not converged
     ethr =  2.46E-08,  avg # of iterations = 16.2

[...]

     total energy              =  -58770.85358349 Ry
     estimated scf accuracy    <       0.00000689 Ry

     iteration # 24     ecut=    40.00 Ry     beta= 0.70
     Davidson diagonalization with overlap
     ethr =  1.09E-10,  avg # of iterations =  3.8

[...]

     End of self-consistent calculation

          k = 0.1667 0.1925 0.0000 (440477 PWs)   bands (ev):

    -0.8129  -0.5875  -0.5139  -0.4713  -0.3680  -0.2963  -0.2496  -0.2262
    -0.1778  -0.0866  -0.0349  -0.0152   0.0255   0.0345   0.1020   0.1858
     0.2374   0.2427   0.2538   0.3063   0.3117   0.4511   0.4901   0.4985
     0.5171   0.5492   0.5641   0.5802   0.6015   0.6351   0.7098   0.7196
     0.7501   0.7753   0.7833   0.8164   0.8245   0.8362   0.8821   0.9223
     0.9341   0.9540   0.9651   0.9952   1.0080   1.0167   1.0199   1.0260
     1.0820   1.0910   1.1251   1.1389   1.1688   1.1954   1.2051   1.2160
[...]
     1.8522   1.8536   1.8547   1.8556   1.8571   1.8582   1.8642   1.8683
     1.8813   1.8822   1.8898   1.8926   1.8937   1.8950   1.9103   1.9117
     1.9218   1.9269   1.9301   1.9311   1.9355   1.9393   1.9417   1.9443
     1.9455   1.9455   1.9476   1.9509   1.9646   1.9649   1.9686   1.9730
     1.9731   1.9844   1.9848   1.9865   1.9923   1.9973   1.9991   1.9998
     2.0084   2.0089   2.0096   2.0105   2.0134   2.0150   2.0218   2.0285
     2.0303   2.0337   2.0383   2.0384   2.0406   2.0427   2.0435   2.0467
     2.0560   2.0593   2.0658   2.0743   2.0845   2.0855   2.0863   2.0883
     2.0886   2.0946   2.0983   2.1028   2.1078   2.1097   2.1107   2.1115
     2.1130   2.1221   2.1228   2.1255   2.1272   2.1292   2.1327   2.1379
     2.1387   2.1388   2.1414   2.1441   2.1459   2.1467   2.1516   2.1521
     2.1578   2.1596   2.1617   2.1636   2.1657   2.1665   2.1685   2.1689
     2.1715   2.1764   2.1783   2.1825   2.1857   2.1962   2.1976   2.1984
     2.1986   2.2007   2.2044   2.2125   2.2151   2.2168   2.2188   2.2191
     2.2246   2.2258   2.2293   2.2303   2.2308   2.2314   2.2340   2.2343
     2.2357   2.2382   2.2416   2.2418   2.2430   2.2442   2.2445   2.2450
     2.2478   2.2487   2.2513   2.2591   2.2735   2.2775   2.2804   2.2807
     2.2887   2.2893   2.2907   2.2930   2.3020   2.3028   2.3038   2.3046
     2.3081   2.3081   2.3087   2.3100   2.3148   2.3161   2.3180   2.3181
     2.3195   2.3230   2.3254   2.3261   2.3263   2.3295   2.3319   2.3319
     2.3328   2.3338   2.3376   2.3383   2.3405   2.3434   2.3437   2.3439
     2.3450   2.3478   2.3495   2.3503   2.3550   2.3554   2.3559   2.3581
     2.3628   2.3654   2.3700   2.3702   2.3710   2.3756   2.3765   2.3808
     2.3811   2.3825   2.3833   2.3856   2.3916   2.3930   2.3992   2.4010
     2.4064   2.4081   2.4116   2.4119   2.4123   2.4163   2.4166   2.4224
     2.4231   2.4263   2.4263   2.4265   2.4283   2.4284   2.4285   2.4302
     2.4306   2.4307   2.4338   2.4366   2.4394   2.4396   2.4408   2.4483
     2.4494   2.4502   2.4516   2.4523   2.4563   2.4603   2.4620   2.4666
     2.4671   2.4677   2.4686   2.4700   2.4744   2.4759   2.4759   2.4766
     2.4837   2.4838   2.4852   2.4858   2.4878   2.4887   2.4890   2.4953
     2.4986   2.5039   2.5089   2.5096   2.5109   2.5136   2.5136   2.5152
     2.5197   2.5203   2.5245   2.5291   2.5323   2.5358   2.5371   2.5376
     2.5380   2.5394   2.5431   2.5463   2.5474   2.5477   2.5513   2.5522
     2.5534   2.5556   2.5580   2.5602   2.5628   2.5643   2.5647   2.5681
     2.5681   2.5683   2.5688   2.5742   2.5757   2.5777   2.5778   2.5801
     2.5802   2.5813   2.5826   2.5868   2.5881   2.5905   2.5916   2.5924
     2.5928   2.5933   2.5945   2.5963   2.5982   2.5986   2.5987   2.5992
     2.6022   2.6073   2.6140   2.6144   2.6170   2.6192   2.6208   2.6208
     2.6211   2.6234   2.6339   2.6352   2.6416   2.6433   2.6454   2.6454
     2.6541   2.6550   2.6575   2.6591   2.6600   2.6614   2.6637   2.6638
     2.6673   2.6684   2.6688   2.6701   2.6731   2.6784   2.6792   2.6806
     2.6825   2.6825   2.6847   2.6896   2.6916   2.6933   2.6942   2.6981
     2.6990   2.7013   2.7041   2.7048   2.7050   2.7086   2.7104   2.7149
     2.7164   2.7166   2.7198   2.7199   2.7237   2.7238   2.7268   2.7284
[...]
    13.7254  13.7458  13.7485  13.7551  13.7558  13.7601  13.7615  13.7660
    13.7666  13.7672  13.7676  13.8020  13.8096  13.8101  13.8189  13.8227
    13.8265  13.8268  13.8338  13.8359  13.8407  13.8433  13.8821  13.8831
    13.8858  13.8902  13.8962  13.9144  13.9294  13.9334  13.9337  13.9393
    13.9447  13.9526  13.9555  13.9580  13.9609  13.9646  13.9926  13.9952
    13.9972  14.0024  14.0039  14.0079  14.0122  14.0285  14.0389  14.0431
    14.0493  14.0699  14.0745  14.0904  14.0913  14.0995  14.1009  14.1044
    14.1099  14.1118  14.1283  14.1305  14.1425  14.1448  14.1551  14.1638
    14.1705  14.1717  14.1911  14.1921  14.2010  14.2043  14.2056  14.2311
    14.2434  14.2439  14.2494  14.2543  14.2715  14.2789  14.2824  14.2949
    14.3163  14.3199  14.3241  14.3393  14.3722  14.3738  14.3757  14.3758
    14.3760  14.3783  14.3828  14.3918  14.4021  14.4036  14.4088  14.4104
    14.4230  14.4232  14.4283  14.4869  14.4928  14.4986  14.5002  14.5022
    14.5060  14.5314  14.5349  14.5517  14.5552  14.5556  14.5575  14.5868
    14.5978  14.6009

          k = 0.1667-0.5774 0.0000 (440444 PWs)   bands (ev):

[...]

          k =-0.5000 0.1925 0.0000 (440450 PWs)   bands (ev):

[...]

          k =-0.5000-0.5774 0.0000 (440632 PWs)   bands (ev):

    -0.6371  -0.6371  -0.6371  -0.6371  -0.2984  -0.2984  -0.2984  -0.2984
     0.0044   0.0044   0.0044   0.0044   0.1948   0.1948   0.1948   0.1948
     0.2062   0.2062   0.2062   0.2062   0.3249   0.3249   0.3249   0.3249
     0.5170   0.5170   0.5170   0.5170   0.7649   0.7649   0.7649   0.7649
     0.7686   0.7686   0.7686   0.7686   0.7925   0.7925   0.7925   0.7925
     0.9683   0.9683   0.9683   0.9683   1.0401   1.0401   1.0401   1.0401
     1.0801   1.0801   1.0801   1.0801   1.2912   1.2912   1.2912   1.2912
     1.3257   1.3257   1.3257   1.3257   1.3421   1.3421   1.3421   1.3421
     1.3787   1.3787   1.3787   1.3787   1.4110   1.4110   1.4110   1.4110
     1.4343   1.4343   1.4343   1.4343   1.4917   1.4917   1.4917   1.4917
     1.6014   1.6014   1.6014   1.6014   1.6107   1.6107   1.6107   1.6107
     1.6117   1.6117   1.6117   1.6117   1.6408   1.6408   1.6408   1.6408
     1.6658   1.6658   1.6658   1.6658   1.6684   1.6684   1.6684   1.6684
     1.7139   1.7139   1.7139   1.7139   1.7257   1.7257   1.7257   1.7257
     1.7567   1.7567   1.7567   1.7567   1.8476   1.8476   1.8476   1.8476
     1.8528   1.8528   1.8528   1.8528   1.8594   1.8594   1.8594   1.8594
     1.8861   1.8861   1.8861   1.8861   1.8929   1.8929   1.8929   1.8929
     1.9156   1.9156   1.9156   1.9156   1.9239   1.9239   1.9239   1.9239
     1.9331   1.9331   1.9331   1.9331   1.9385   1.9385   1.9385   1.9385
     1.9572   1.9572   1.9572   1.9572   1.9644   1.9644   1.9644   1.9644
     1.9896   1.9896   1.9896   1.9896   1.9967   1.9967   1.9967   1.9967
     2.0034   2.0034   2.0034   2.0034   2.0400   2.0400   2.0400   2.0400
     2.0445   2.0445   2.0445   2.0445   2.0489   2.0489   2.0489   2.0489
     2.0802   2.0802   2.0802   2.0802   2.0953   2.0953   2.0953   2.0953
     2.1097   2.1097   2.1097   2.1097   2.1161   2.1161   2.1161   2.1161
     2.1473   2.1473   2.1473   2.1473   2.1636   2.1636   2.1636   2.1636
     2.1647   2.1647   2.1647   2.1647   2.1686   2.1686   2.1686   2.1686
     2.1799   2.1799   2.1799   2.1799   2.1981   2.1981   2.1981   2.1981
     2.1981   2.1981   2.1981   2.1981   2.2066   2.2066   2.2066   2.2066
     2.2131   2.2131   2.2131   2.2131   2.2215   2.2215   2.2215   2.2215
     2.2217   2.2217   2.2217   2.2217   2.2221   2.2221   2.2221   2.2221
     2.2321   2.2321   2.2321   2.2321   2.2387   2.2387   2.2387   2.2387
     2.2394   2.2394   2.2394   2.2394   2.2536   2.2536   2.2536   2.2536
     2.2609   2.2609   2.2609   2.2609   2.2717   2.2717   2.2717   2.2717
     2.2762   2.2762   2.2762   2.2762   2.3135   2.3135   2.3135   2.3135
     2.3212   2.3212   2.3212   2.3212   2.3215   2.3215   2.3215   2.3215
     2.3217   2.3217   2.3217   2.3217   2.3235   2.3235   2.3235   2.3235
     2.3505   2.3505   2.3505   2.3505   2.3722   2.3722   2.3722   2.3722
     2.3756   2.3756   2.3756   2.3756   2.3771   2.3771   2.3771   2.3771
     2.3833   2.3833   2.3833   2.3833   2.3859   2.3859   2.3859   2.3859
     2.3883   2.3883   2.3883   2.3883   2.3930   2.3930   2.3930   2.3930
     2.3942   2.3942   2.3942   2.3942   2.3945   2.3945   2.3945   2.3945
     2.3984   2.3984   2.3984   2.3984   2.4171   2.4171   2.4171   2.4171
     2.4659   2.4659   2.4659   2.4659   2.4677   2.4677   2.4677   2.4677
     2.4787   2.4787   2.4787   2.4787   2.4794   2.4794   2.4794   2.4794
     2.4842   2.4842   2.4842   2.4842   2.4959   2.4959   2.4959   2.4959
     2.5097   2.5097   2.5097   2.5097   2.5112   2.5112   2.5112   2.5112
     2.5288   2.5288   2.5288   2.5288   2.5328   2.5328   2.5328   2.5328
     2.5415   2.5415   2.5415   2.5415   2.5442   2.5442   2.5442   2.5442
     2.5527   2.5527   2.5527   2.5527   2.5600   2.5600   2.5600   2.5600
     2.5644   2.5644   2.5644   2.5644   2.5709   2.5709   2.5709   2.5709
     2.5866   2.5866   2.5866   2.5866   2.5932   2.5932   2.5932   2.5932
     2.6066   2.6066   2.6066   2.6066   2.6086   2.6086   2.6086   2.6086
     2.6156   2.6156   2.6156   2.6156   2.6238   2.6238   2.6238   2.6238
     2.6277   2.6277   2.6277   2.6277   2.6332   2.6332   2.6332   2.6332
     2.6570   2.6570   2.6570   2.6570   2.6829   2.6829   2.6829   2.6829
     2.6865   2.6865   2.6865   2.6865   2.6872   2.6872   2.6872   2.6872
     2.6938   2.6938   2.6938   2.6938   2.6985   2.6985   2.6985   2.6985
     2.7090   2.7090   2.7090   2.7090   2.7138   2.7138   2.7138   2.7138
     2.7139   2.7139   2.7139   2.7139   2.7270   2.7270   2.7270   2.7270
[...]
    13.6821  13.6821  13.6821  13.6821  13.7385  13.7385  13.7385  13.7385
    13.7531  13.7531  13.7531  13.7531  13.7953  13.7953  13.7953  13.7953
    13.8496  13.8496  13.8496  13.8496  13.8778  13.8778  13.8778  13.8778
    13.9057  13.9057  13.9057  13.9057  13.9626  13.9626  13.9626  13.9626
    14.0027  14.0027  14.0027  14.0027  14.0172  14.0172  14.0172  14.0172
    14.0575  14.0575  14.0575  14.0575  14.1047  14.1047  14.1047  14.1047
    14.1442  14.1442  14.1442  14.1442  14.1656  14.1656  14.1656  14.1656
    14.1881  14.1881  14.1881  14.1881  14.2005  14.2005  14.2005  14.2005
    14.2166  14.2166  14.2166  14.2166  14.2193  14.2194  14.2194  14.2194
    14.2345  14.2345  14.2345  14.2345  14.2535  14.2535  14.2535  14.2535
    14.2645  14.2645  14.2645  14.2645  14.3138  14.3138  14.3138  14.3138
    14.4200  14.4200  14.4200  14.4200  14.4375  14.4375  14.4376  14.4376
    14.5468  14.5468  14.5468  14.5468  14.5656  14.5656  14.5656  14.5656
    14.6124  14.6124  14.6140  14.6140  14.6140  14.6141  14.6770  14.6770
    14.6770  14.6770

     the Fermi energy is     8.2691 ev

!    total energy              =  -58770.85358469 Ry
     estimated scf accuracy    <       0.00000081 Ry
     smearing contrib. (-TS)   =       0.75863643 Ry
     internal energy E=F+TS    =  -58771.61222113 Ry

     The total energy is F=E-TS. E is the sum of the following terms:
     one-electron contribution = -271193.56227814 Ry
     hartree contribution      =  141586.55630083 Ry
     xc contribution           =  -28408.06238092 Ry
     ewald contribution        =   99243.45613711 Ry

     convergence has been achieved in  24 iterations

     negative rho (up, down):  1.567E+01 0.000E+00

     Forces acting on atoms (cartesian axes, Ry/au):

     atom    1 type  1   force =     0.00000000   -0.00165179    0.02678209
     atom    2 type  1   force =    -0.00000194   -0.00165180    0.02677996
     atom    3 type  1   force =     0.00000017   -0.00165333    0.02677969
     atom    4 type  1   force =     0.00000000   -0.00165181    0.02678239
     atom    5 type  1   force =     0.00000193   -0.00165173    0.02677994
     atom    6 type  1   force =    -0.00000198   -0.00165165    0.02678014
     atom    7 type  1   force =     0.00000000   -0.00165163    0.02678210
     atom    8 type  1   force =    -0.00000003   -0.00165318    0.02677977
     atom    9 type  1   force =    -0.00000193   -0.00165173    0.02677994
     atom   10 type  1   force =     0.00000000   -0.00165140    0.02678235
     atom   11 type  1   force =     0.00000203   -0.00165181    0.02678003
     atom   12 type  1   force =    -0.00000017   -0.00165333    0.02677969
     atom   13 type  1   force =    -0.00000204   -0.00165140    0.02677996
     atom   14 type  1   force =     0.00000000   -0.00165196    0.02678237
     atom   15 type  1   force =     0.00000194   -0.00165180    0.02677996
     atom   16 type  1   force =    -0.00000009   -0.00165289    0.02677982
     atom   17 type  1   force =    -0.00000203   -0.00165181    0.02678003
     atom   18 type  1   force =     0.00000000   -0.00165145    0.02678230
     atom   19 type  1   force =     0.00000186   -0.00165145    0.02677992
     atom   20 type  1   force =     0.00000003   -0.00165318    0.02677977
     atom   21 type  1   force =    -0.00000206   -0.00165148    0.02677986
     atom   22 type  1   force =     0.00000000   -0.00165153    0.02678232
     atom   23 type  1   force =     0.00000198   -0.00165165    0.02678014
     atom   24 type  1   force =    -0.00000007   -0.00165284    0.02677966
     atom   25 type  1   force =    -0.00000186   -0.00165145    0.02677992
     atom   26 type  1   force =     0.00000178   -0.00165120    0.02677986
     atom   27 type  1   force =     0.00000009   -0.00165289    0.02677982
     atom   28 type  1   force =     0.00000000   -0.00165125    0.02678219
     atom   29 type  1   force =     0.00000204   -0.00165140    0.02677996
     atom   30 type  1   force =    -0.00000178   -0.00165120    0.02677986
     atom   31 type  1   force =     0.00000007   -0.00165284    0.02677966
     atom   32 type  1   force =     0.00000206   -0.00165148    0.02677986
     atom   33 type  1   force =    -0.00000239    0.00335356   -0.01652036
     atom   34 type  1   force =    -0.00000239    0.00335274   -0.01652016
     atom   35 type  1   force =     0.00000251    0.00335281   -0.01652018
     atom   36 type  1   force =    -0.00000240    0.00335365   -0.01652009
     atom   37 type  1   force =     0.00000245    0.00335279   -0.01651991
     atom   38 type  1   force =     0.00000241    0.00335362   -0.01652049
     atom   39 type  1   force =    -0.00000251    0.00335281   -0.01652018
     atom   40 type  1   force =    -0.00000238    0.00335397   -0.01652021
     atom   41 type  1   force =    -0.00000244    0.00335284   -0.01651991
     atom   42 type  1   force =    -0.00000248    0.00335313   -0.01652005
     atom   43 type  1   force =     0.00000237    0.00335351   -0.01652014
     atom   44 type  1   force =    -0.00000241    0.00335362   -0.01652049
     atom   45 type  1   force =    -0.00000237    0.00335351   -0.01652014
     atom   46 type  1   force =     0.00000239    0.00335274   -0.01652016
     atom   47 type  1   force =     0.00000239    0.00335356   -0.01652036
     atom   48 type  1   force =    -0.00000212   -0.00159746   -0.00960447
     atom   49 type  1   force =    -0.00000216   -0.00159710   -0.00960444
     atom   50 type  1   force =     0.00000000   -0.00159760   -0.00960300
     atom   51 type  1   force =    -0.00000239    0.00335305   -0.01652024
     atom   52 type  1   force =     0.00000227    0.00335316   -0.01651990
     atom   53 type  1   force =    -0.00000239    0.00335395   -0.01651999
     atom   54 type  1   force =    -0.00000245    0.00335279   -0.01651991
     atom   55 type  1   force =     0.00000240    0.00335365   -0.01652009
     atom   56 type  1   force =     0.00000003   -0.00159753   -0.00960620
     atom   57 type  1   force =     0.00000214   -0.00159748   -0.00960453
     atom   58 type  1   force =    -0.00000237    0.00335382   -0.01652039
     atom   59 type  1   force =     0.00000232    0.00335314   -0.01652020
     atom   60 type  1   force =     0.00000239    0.00335395   -0.01651999
[...]
     atom  562 type  1   force =    -0.00000021    0.00165000   -0.02676528
     atom  563 type  1   force =     0.00000116    0.00164775   -0.02676858
     atom  564 type  1   force =    -0.00000104    0.00164765   -0.02676857
     atom  565 type  1   force =     0.00000025    0.00164974   -0.02676516
     atom  566 type  1   force =    -0.00000025    0.00164974   -0.02676516
     atom  567 type  1   force =     0.00000119    0.00164724   -0.02676853
     atom  568 type  1   force =    -0.00000119    0.00164756   -0.02676845
     atom  569 type  1   force =    -0.00000120    0.00164741   -0.02676847
     atom  570 type  1   force =     0.00000028    0.00164996   -0.02676523
     atom  571 type  1   force =     0.00000027    0.00164982   -0.02676509
     atom  572 type  1   force =     0.00000120    0.00164741   -0.02676847
     atom  573 type  1   force =    -0.00000119    0.00164724   -0.02676853
     atom  574 type  1   force =    -0.00000029    0.00164997   -0.02676518
     atom  575 type  1   force =     0.00000109    0.00164745   -0.02676846
     atom  576 type  1   force =     0.00000034    0.00165004   -0.02676520

     Total force =     0.269675     Total SCF correction =     0.005466

     General routines

     Parallel routines

   This run was terminated on:  19:26:13  23Sep2021

   JOB DONE.