     Program PWSCF v.6.6 starts on 17Sep2021 at  7:14: 0

     R & G space division:  proc/nbgrp/npool/nimage =      12
     Fft bands division:     nmany     =       1
     Reading input from ../inputs/input_ausurf_288

     Current dimensions of program PWSCF are:
     Max number of different atomic species (ntypx) = 10
     Max number of k-points (npk) =  40000
     Max angular momentum in pseudopotentials (lmaxx) =  3

     Subspace diagonalization in iterative solution of the eigenvalue problem:
     one sub-group per band group will be used

     Found symmetry operation: I + (  0.2500  0.0000  0.0000)
     This is a supercell, fractional translations are disabled

     Title:
      Ausurf

     bravais-lattice index     =            8
     lattice parameter (alat)  =      22.2988  a.u.
     unit-cell volume          =   51555.9485 (a.u.)^3
     number of atoms/cell      =          288
     number of atomic types    =            1
     number of electrons       =      3168.00
     number of Kohn-Sham states=         1901
     kinetic-energy cutoff     =      40.0000  Ry
     charge density cutoff     =     350.0000  Ry
     convergence threshold     =      1.0E-06
     mixing beta               =       0.7000
     number of iterations used =            8  TF        mixing
     Exchange-correlation=  SLA  PW   PBE  PBE
                           (   1   4   3   4   0   0   0)

     celldm(1)=  22.298768  celldm(2)=   1.732051  celldm(3)=   2.684575
     celldm(4)=   0.000000  celldm(5)=   0.000000  celldm(6)=   0.000000

     crystal axes: (cart. coord. in units of alat)
               a(1) = (   1.000000   0.000000   0.000000 )
               a(2) = (   0.000000   1.732051   0.000000 )
               a(3) = (   0.000000   0.000000   2.684575 )

     reciprocal axes: (cart. coord. in units 2 pi/alat)
               b(1) = (  1.000000  0.000000  0.000000 )
               b(2) = (  0.000000  0.577350  0.000000 )
               b(3) = (  0.000000  0.000000  0.372498 )

     PseudoPot. # 1 for Au read from file:
     /marconi/home/userexternal/czeni000/dft_src/pseudo/Au.pbe-nd-van.UPF
     MD5 check sum: deb5c07af10777505a79e28f5b4b4115
     Pseudo is Ultrasoft + core correction, Zval = 11.0
     Generated by new atomic code, or converted to UPF format
     Using radial grid of  985 points,  3 beta functions with:
                l(1) =   1
                l(2) =   2
                l(3) =   2
     Q(r) pseudized with  8 coefficients,  rinner =    1.100   1.100   1.100
                                                       1.100   1.100

     atomic species   valence    mass     pseudopotential
        Au            11.00   196.96000     Au( 1.00)

      2 Sym. Ops. (no inversion) found

   Cartesian axes

     site n.     atom                  positions (alat units)
         1           Au  tau(   1) = (   0.0000000   0.0000000   0.0000000  )
         2           Au  tau(   2) = (   0.2500000   0.0000000   0.0000000  )
         3           Au  tau(   3) = (   0.5000000   0.0000000   0.0000000  )
         4           Au  tau(   4) = (   0.0000000   0.4330127   0.0000000  )
         5           Au  tau(   5) = (   0.7500000   0.0000000   0.0000000  )
         6           Au  tau(   6) = (   0.2500000   0.4330127   0.0000000  )
         7           Au  tau(   7) = (   0.5000000   0.4330127   0.0000000  )
         8           Au  tau(   8) = (   0.0000000   0.8660254   0.0000000  )
         9           Au  tau(   9) = (   0.7500000   0.4330127   0.0000000  )
        10           Au  tau(  10) = (   0.2500000   0.8660254   0.0000000  )
        11           Au  tau(  11) = (   0.5000000   0.8660254   0.0000000  )
        12           Au  tau(  12) = (   0.0000000   1.2990381   0.0000000  )
        13           Au  tau(  13) = (   0.7500000   0.8660254   0.0000000  )
        14           Au  tau(  14) = (   0.2500000   1.2990381   0.0000000  )
        15           Au  tau(  15) = (   0.5000000   1.2990381   0.0000000  )
        16           Au  tau(  16) = (   0.7500000   1.2990381   0.0000000  )
        17           Au  tau(  17) = (   0.1250000   0.0721688   0.2041242  )
        18           Au  tau(  18) = (   0.3750000   0.0721688   0.2041242  )
        19           Au  tau(  19) = (   0.6250000   0.0721688   0.2041242  )
        20           Au  tau(  20) = (   0.1250000   0.5051815   0.2041242  )
        21           Au  tau(  21) = (   0.6250000   0.5051815   0.2041242  )
        22           Au  tau(  22) = (   0.8750000   0.0721688   0.2041242  )
        23           Au  tau(  23) = (   0.1250000   0.9381942   0.2041242  )
        24           Au  tau(  24) = (   0.3750000   0.5051815   0.2041242  )
        25           Au  tau(  25) = (   0.3750000   0.9381942   0.2041242  )
        26           Au  tau(  26) = (   0.8750000   0.5051815   0.2041242  )
        27           Au  tau(  27) = (   0.2500000   0.2886752   0.2041242  )
        28           Au  tau(  28) = (   0.2500000   0.7216878   0.2041242  )
        29           Au  tau(  29) = (   1.0000000   0.2886752   0.2041242  )
        30           Au  tau(  30) = (   0.3750000   1.3712069   0.2041242  )
        31           Au  tau(  31) = (   0.6250000   0.9381942   0.2041242  )
        32           Au  tau(  32) = (   0.5000000   0.2886752   0.2041242  )
        33           Au  tau(  33) = (   0.7500000   0.2886752   0.2041242  )
        34           Au  tau(  34) = (   0.1250000   1.3712069   0.2041242  )
        35           Au  tau(  35) = (   0.6250000   1.3712069   0.2041242  )
        36           Au  tau(  36) = (   0.8750000   0.9381942   0.2041242  )
        37           Au  tau(  37) = (   0.8750000   1.3712069   0.2041242  )
        38           Au  tau(  38) = (   0.5000000   0.7216878   0.2041242  )
        39           Au  tau(  39) = (   0.7500000   0.7216878   0.2041242  )
        40           Au  tau(  40) = (   0.7500000   1.1547005   0.2041242  )
        41           Au  tau(  41) = (   0.2500000   1.1547005   0.2041242  )
        42           Au  tau(  42) = (   0.5000000   1.1547005   0.2041242  )
        43           Au  tau(  43) = (   1.0000000   0.7216878   0.2041242  )
        44           Au  tau(  44) = (   0.2500000   1.5877132   0.2041242  )
        45           Au  tau(  45) = (   0.5000000   1.5877132   0.2041242  )
        46           Au  tau(  46) = (   1.0000000   1.1547005   0.2041242  )
        47           Au  tau(  47) = (   0.7500000   1.5877132   0.2041242  )
        48           Au  tau(  48) = (   1.0000000   1.5877132   0.2041242  )
        49           Au  tau(  49) = (   0.2500000   0.1443375   0.4082483  )
        50           Au  tau(  50) = (   0.6250000   0.3608439   0.4082483  )
        51           Au  tau(  51) = (   0.5000000   0.1443375   0.4082483  )
        52           Au  tau(  52) = (   0.7500000   0.1443375   0.4082483  )
        53           Au  tau(  53) = (   0.1250000   0.3608439   0.4082483  )
        54           Au  tau(  54) = (   0.3750000   0.3608439   0.4082483  )
        55           Au  tau(  55) = (   0.2500000   0.5773503   0.4082483  )
        56           Au  tau(  56) = (   0.5000000   0.5773503   0.4082483  )
        57           Au  tau(  57) = (   0.5000000   1.0103630   0.4082483  )
        58           Au  tau(  58) = (   0.5000000   1.4433757   0.4082483  )
        59           Au  tau(  59) = (   0.7500000   0.5773503   0.4082483  )
        60           Au  tau(  60) = (   1.0000000   0.1443375   0.4082483  )
[...]
       274           Au  tau( 274) = (   0.3750000   1.0825318   1.8371173  )
       275           Au  tau( 275) = (   0.6250000   0.6495191   1.8371173  )
       276           Au  tau( 276) = (   0.8750000   0.6495191   1.8371173  )
       277           Au  tau( 277) = (   0.1250000   0.2165064   1.8371173  )
       278           Au  tau( 278) = (   0.1250000   0.6495191   1.8371173  )
       279           Au  tau( 279) = (   0.1250000   1.5155445   1.8371173  )
       280           Au  tau( 280) = (   0.3750000   0.2165064   1.8371173  )
       281           Au  tau( 281) = (   0.3750000   0.6495191   1.8371173  )
       282           Au  tau( 282) = (   0.6250000   0.2165064   1.8371173  )
       283           Au  tau( 283) = (   0.6250000   1.0825318   1.8371173  )
       284           Au  tau( 284) = (   0.8750000   0.2165064   1.8371173  )
       285           Au  tau( 285) = (   0.8750000   1.0825318   1.8371173  )
       286           Au  tau( 286) = (   0.8750000   1.5155445   1.8371173  )
       287           Au  tau( 287) = (   0.3750000   1.5155445   1.8371173  )
       288           Au  tau( 288) = (   0.6250000   1.5155445   1.8371173  )

     number of k points=     6  Marzari-Vanderbilt smearing, width (Ry)=  0.0500
                       cart. coord. in units 2pi/alat
        k(    1) = (   0.0833333   0.0962250   0.0000000), wk =   0.4444444
        k(    2) = (   0.0833333  -0.2886751   0.0000000), wk =   0.2222222
        k(    3) = (   0.2500000   0.0962250   0.0000000), wk =   0.4444444
        k(    4) = (   0.2500000  -0.2886751   0.0000000), wk =   0.2222222
        k(    5) = (   0.4166667   0.0962250   0.0000000), wk =   0.4444444
        k(    6) = (   0.4166667  -0.2886751   0.0000000), wk =   0.2222222

     Initial potential from superposition of free atoms

     starting charge 3164.65577, renormalised to 3168.00000

     negative rho (up, down):  7.682E+00 0.000E+00
     Starting wfcs are 2592 randomized atomic wfcs

     Self-consistent Calculation

     iteration #  1     ecut=    40.00 Ry     beta= 0.70
     Davidson diagonalization with overlap
     ethr =  1.00E-02,  avg # of iterations =  3.0

     Threshold (ethr) on eigenvalues was too large:
     Diagonalizing with lowered threshold

     Davidson diagonalization with overlap
     ethr =  3.34E-04,  avg # of iterations =  3.8

     negative rho (up, down):  7.304E+00 0.000E+00

     total energy              =  -29385.07933126 Ry
     estimated scf accuracy    <      12.62237078 Ry

[...]

     iteration #  4     ecut=    40.00 Ry     beta= 0.70
     Davidson diagonalization with overlap
     c_bands:  1 eigenvalues not converged
     ethr =  1.04E-04,  avg # of iterations = 10.8

[...]

     iteration # 18     ecut=    40.00 Ry     beta= 0.70
     Davidson diagonalization with overlap
     c_bands:  1 eigenvalues not converged
     ethr =  5.89E-08,  avg # of iterations = 14.7

[...]

     total energy              =  -29385.42679047 Ry
     estimated scf accuracy    <       0.00000232 Ry

     iteration # 22     ecut=    40.00 Ry     beta= 0.70
     Davidson diagonalization with overlap
     ethr =  7.32E-11,  avg # of iterations =  4.8

[...]

     End of self-consistent calculation

          k = 0.0833 0.0962 0.0000 (220303 PWs)   bands (ev):

    -0.8130  -0.5140  -0.4714  -0.2263  -0.1779   0.0254   0.1019   0.2537
     0.3116   0.4900   0.5491   0.5640   0.5801   0.6014   0.6350   0.7195
     0.7832   0.8244   0.8362   0.8821   0.9223   0.9650   0.9951   1.0079
     1.0167   1.0909   1.1250   1.1388   1.2050   1.2159   1.2463   1.2568
     1.3386   1.3567   1.3853   1.4018   1.4434   1.4637   1.5057   1.5098
[...]
     2.2417   2.2441   2.2477   2.2734   2.2775   2.2806   2.2886   2.2906
     2.3019   2.3027   2.3045   2.3080   2.3086   2.3099   2.3147   2.3179
     2.3229   2.3253   2.3294   2.3337   2.3382   2.3404   2.3438   2.3449
     2.3494   2.3502   2.3580   2.3701   2.3765   2.3807   2.3810   2.3824
     2.3833   2.3915   2.3991   2.4063   2.4080   2.4115   2.4118   2.4122
     2.4165   2.4230   2.4262   2.4264   2.4282   2.4301   2.4365   2.4395
     2.4407   2.4493   2.4501   2.4515   2.4522   2.4562   2.4603   2.4685
     2.4743   2.4758   2.4766   2.4836   2.4838   2.4857   2.4886   2.4953
     2.5108   2.5135   2.5151   2.5245   2.5357   2.5375   2.5379   2.5430
     2.5462   2.5534   2.5556   2.5579   2.5646   2.5680   2.5687   2.5741
     2.5756   2.5800   2.5801   2.5812   2.5880   2.5904   2.5932   2.5944
     2.5981   2.5985   2.5986   2.6021   2.6139   2.6143   2.6169   2.6207
     2.6233   2.6351   2.6415   2.6540   2.6549   2.6590   2.6613   2.6637
     2.6672   2.6687   2.6700   2.6730   2.6805   2.6846   2.6932   2.6941
     2.6980   2.7012   2.7148   2.7165   2.7197   2.7199   2.7237   2.7267
     2.7340   2.7429   2.7450   2.7476   2.7590   2.7601   2.7689   2.7717
     2.7725   2.7757   2.7781   2.7809   2.7854   2.7906   2.7937   2.8061
     2.8065   2.8067   2.8071   2.8124   2.8125   2.8147   2.8193   2.8246
     2.8344   2.8370   2.8490   2.8508   2.8554   2.8555   2.8573   2.8595
     2.8600   2.8608   2.8754   2.8758   2.8986   2.9117   2.9196   2.9208
     2.9228   2.9294   2.9326   2.9373   2.9403   2.9479   2.9503   2.9564
     2.9567   2.9612   2.9794   2.9841   2.9974   3.0086   3.0112   3.0219
     3.0237   3.0439   3.0561   3.0565   3.0592   3.0675   3.0691   3.0694
     3.0726   3.0804   3.0814   3.0827   3.0834   3.0851   3.0933   3.1109
     3.1160   3.1171   3.1199   3.1221   3.1307   3.1331   3.1379   3.1400
     3.1428   3.1429   3.1479   3.1630   3.1674   3.1695   3.1760   3.1802
     3.1811   3.1909   3.1946   3.1965   3.1988   3.1992   3.2021   3.2087
     3.2088   3.2123   3.2139   3.2232   3.2249   3.2282   3.2318   3.2336
     3.2372   3.2452   3.2613   3.2628   3.2673   3.2742   3.2791   3.2817
     3.2842   3.2909   3.2926   3.2934   3.3001   3.3126   3.3166   3.3217
     3.3244   3.3244   3.3252   3.3262   3.3275   3.3291   3.3318   3.3333
     3.3365   3.3438   3.3475   3.3506   3.3539   3.3552   3.3606   3.3606
     3.3694   3.3732   3.3732   3.3757   3.3758   3.3778   3.3791   3.3817
     3.4049   3.4061   3.4066   3.4096   3.4138   3.4166   3.4213   3.4218
     3.4277   3.4347   3.4388   3.4389   3.4423   3.4477   3.4484   3.4495
     3.4593   3.4631   3.4633   3.4643   3.4731   3.4748   3.4757   3.4759
     3.4788   3.4824   3.4860   3.4871   3.4961   3.4974   3.5022   3.5062
     3.5090   3.5120   3.5149   3.5150   3.5186   3.5267   3.5319   3.5333
     3.5359   3.5381   3.5389   3.5436   3.5479   3.5537   3.5579   3.5628
     3.5669   3.5689   3.5709   3.5762   3.5764   3.5801   3.5855   3.5868
     3.5908   3.5919   3.5934   3.5971   3.5982   3.6016   3.6017   3.6018
     3.6075   3.6089   3.6210   3.6211   3.6244   3.6246   3.6252   3.6259
     3.6263   3.6297   3.6325   3.6447   3.6468   3.6479   3.6481   3.6594
     3.6620   3.6790   3.6846   3.6907   3.6923   3.6933   3.6961   3.6978
     3.7043   3.7091   3.7115   3.7151   3.7189   3.7200   3.7209   3.7304
[...]
    12.6451  12.6533  12.7046  12.7298  12.7414  12.7434  12.7650  12.7790
    12.7891  12.8210  12.8466  12.8496  12.8733  12.8748  12.8884  12.8934
    12.9050  12.9361  13.0225  13.0226  13.0521  13.0718  13.0810  13.0936
    13.0961  13.1005  13.1578  13.1679  13.1795  13.2040  13.2151  13.2275
    13.2443  13.2493  13.2596  13.2840  13.2842  13.2950  13.3196  13.3232
    13.3387  13.3790  13.3836  13.4404  13.4463  13.4619  13.4632  13.4640
    13.4673  13.4685  13.4717  13.4915  13.5041  13.5235  13.5273  13.5777
    13.6556  13.6622  13.6761  13.6821  13.6884  13.7254  13.7599  13.7659
    13.8097  13.8175  13.8226  13.8264  13.8357  13.8431  13.8830  13.8846
    13.8895  13.8961  13.9142  13.9333  13.9336  13.9392  13.9526  13.9577
    13.9603  13.9951  13.9952  14.0012  14.0078  14.0275  14.0490  14.0698
    14.0903  14.1009  14.1118  14.1277  14.1446  14.1627  14.1704  14.1717
    14.2009  14.2034  14.2310  14.2432  14.2710  14.2788  14.2823  14.3234
    14.3392  14.3703  14.3738  14.4017  14.4034  14.4102  14.4230  14.4232
    14.4276  14.5055  14.5482  14.5561  14.5573

[...]

          k = 0.4167-0.2887 0.0000 (220176 PWs)   bands (ev):

    -0.4895  -0.4895  -0.2733  -0.2733  -0.1537  -0.1537   0.0569   0.0569
     0.3357   0.3357   0.3411   0.3411   0.5325   0.5325   0.5387   0.5387
     0.6459   0.6459   0.8261   0.8261   0.9069   0.9069   1.0888   1.0888
     1.1031   1.1031   1.2517   1.2517   1.4282   1.4282   1.4452   1.4452
     1.5139   1.5139   1.5162   1.5162   1.5722   1.5722   1.6071   1.6071
     1.6202   1.6202   1.6547   1.6547   1.7084   1.7084   1.7305   1.7305
     1.7332   1.7332   1.7476   1.7476   1.7531   1.7531   1.7533   1.7533
     1.7897   1.7897   1.8178   1.8178   1.8301   1.8301   1.8358   1.8358
     1.8508   1.8508   1.8919   1.8919   1.9077   1.9077   1.9130   1.9130
     1.9172   1.9172   1.9448   1.9448   1.9504   1.9504   1.9601   1.9601
     1.9604   1.9604   1.9789   1.9789   2.0071   2.0071   2.0175   2.0175
     2.0272   2.0272   2.0293   2.0293   2.0368   2.0368   2.0431   2.0431
     2.0714   2.0714   2.0770   2.0770   2.0826   2.0826   2.1039   2.1039
     2.1151   2.1151   2.1292   2.1292   2.1316   2.1316   2.1382   2.1382
     2.1447   2.1447   2.1527   2.1527   2.1892   2.1892   2.1956   2.1956
     2.2042   2.2042   2.2214   2.2214   2.2325   2.2325   2.2402   2.2402
     2.2548   2.2548   2.2721   2.2721   2.2912   2.2912   2.2933   2.2933
     2.3009   2.3009   2.3039   2.3039   2.3164   2.3164   2.3278   2.3278
     2.3474   2.3474   2.3508   2.3508   2.3572   2.3572   2.3572   2.3572
     2.3715   2.3715   2.3867   2.3867   2.3922   2.3922   2.4181   2.4181
     2.4340   2.4340   2.4352   2.4352   2.4374   2.4374   2.4379   2.4379
     2.4432   2.4432   2.4509   2.4509   2.4562   2.4562   2.4608   2.4608
     2.4619   2.4619   2.4652   2.4652   2.4712   2.4712   2.4810   2.4810
     2.4841   2.4841   2.4882   2.4882   2.5105   2.5105   2.5194   2.5194
     2.5224   2.5224   2.5238   2.5238   2.5381   2.5381   2.5406   2.5406
     2.5660   2.5660   2.5684   2.5684   2.5701   2.5701   2.5775   2.5775
     2.5876   2.5876   2.5889   2.5889   2.5990   2.5990   2.6021   2.6021
     2.6042   2.6042   2.6062   2.6062   2.6116   2.6116   2.6251   2.6251
     2.6369   2.6369   2.6463   2.6463   2.6512   2.6512   2.6555   2.6555
     2.6853   2.6853   2.6880   2.6880   2.6881   2.6881   2.7007   2.7007
     2.7051   2.7051   2.7074   2.7074   2.7142   2.7142   2.7507   2.7507
     2.7793   2.7793   2.7846   2.7846   2.7882   2.7882   2.7937   2.7937
     2.7947   2.7947   2.8136   2.8136   2.8160   2.8160   2.8170   2.8170
     2.8212   2.8212   2.8251   2.8251   2.8261   2.8261   2.8305   2.8305
     2.8355   2.8355   2.8464   2.8464   2.8616   2.8616   2.8669   2.8669
     2.8765   2.8765   2.8945   2.8945   2.9014   2.9014   2.9313   2.9313
     2.9346   2.9346   2.9366   2.9366   2.9513   2.9513   2.9851   2.9851
     2.9877   2.9877   2.9982   2.9982   3.0068   3.0068   3.0256   3.0256
     3.0534   3.0534   3.0585   3.0585   3.0790   3.0790   3.0860   3.0860
     3.0895   3.0895   3.1067   3.1067   3.1080   3.1080   3.1082   3.1082
     3.1118   3.1118   3.1252   3.1252   3.1387   3.1387   3.1636   3.1636
     3.1647   3.1647   3.1700   3.1700   3.1793   3.1793   3.1812   3.1812
     3.1956   3.1956   3.2037   3.2037   3.2288   3.2288   3.2318   3.2318
     3.2440   3.2440   3.2607   3.2607   3.2648   3.2648   3.2684   3.2684
     3.2730   3.2730   3.2904   3.2904   3.2935   3.2935   3.3120   3.3120
     3.3153   3.3153   3.3236   3.3236   3.3383   3.3383   3.3391   3.3391
     3.3443   3.3443   3.3450   3.3450   3.3703   3.3703   3.3704   3.3704
     3.3711   3.3711   3.3848   3.3848   3.3871   3.3871   3.3900   3.3900
     3.4123   3.4123   3.4220   3.4220   3.4265   3.4265   3.4275   3.4275
     3.4378   3.4378   3.4383   3.4383   3.4392   3.4392   3.4497   3.4497
     3.4527   3.4527   3.4558   3.4558   3.4609   3.4609   3.4616   3.4616
     3.4669   3.4669   3.4899   3.4899   3.4901   3.4901   3.4949   3.4949
     3.5050   3.5050   3.5056   3.5056   3.5105   3.5105   3.5119   3.5119
     3.5387   3.5387   3.5392   3.5392   3.5478   3.5478   3.5590   3.5590
     3.5596   3.5596   3.5630   3.5630   3.5668   3.5668   3.5835   3.5835
     3.5911   3.5911   3.6048   3.6048   3.6178   3.6178   3.6258   3.6258
     3.6275   3.6275   3.6359   3.6359   3.6484   3.6484   3.6491   3.6491
     3.6587   3.6587   3.6622   3.6622   3.6767   3.6767   3.6832   3.6832
     3.6881   3.6881   3.6888   3.6888   3.6929   3.6929   3.6975   3.6975
     3.7070   3.7070   3.7237   3.7237   3.7276   3.7276   3.7305   3.7305
[...]
    12.4971  12.4971  12.6151  12.6151  12.6158  12.6158  12.6323  12.6323
    12.6410  12.6410  12.8161  12.8161  12.8849  12.8849  12.9058  12.9058
    12.9276  12.9276  12.9941  12.9941  12.9979  12.9979  13.0108  13.0108
    13.0533  13.0533  13.0565  13.0565  13.1152  13.1152  13.1434  13.1434
    13.1583  13.1583  13.1746  13.1746  13.3113  13.3113  13.3802  13.3802
    13.4024  13.4024  13.4296  13.4296  13.4737  13.4737  13.5266  13.5266
    13.5616  13.5616  13.5762  13.5762  13.5949  13.5949  13.6174  13.6174
    13.6317  13.6317  13.6659  13.6659  13.7325  13.7325  13.7712  13.7712
    13.7753  13.7753  13.7865  13.7865  13.8453  13.8453  13.9136  13.9136
    13.9240  13.9240  13.9324  13.9324  13.9660  13.9660  13.9699  13.9699
    14.0723  14.0723  14.1194  14.1194  14.1858  14.1858  14.2075  14.2075
    14.2744  14.2747  14.2850  14.2850  14.2856  14.2856  14.2918  14.2918
    14.2942  14.2942  14.2968  14.2968  14.3064  14.3064  14.3942  14.3947
    14.4466  14.4466  14.4481  14.4481  14.4603  14.4603  14.4929  14.4929
    14.5859  14.5859  14.6417  14.6507  14.6507

     the Fermi energy is     8.2690 ev

!    total energy              =  -29385.42679225 Ry
     estimated scf accuracy    <       0.00000075 Ry
     smearing contrib. (-TS)   =       0.37910671 Ry
     internal energy E=F+TS    =  -29385.80589896 Ry

     The total energy is F=E-TS. E is the sum of the following terms:
     one-electron contribution = -135596.84010554 Ry
     hartree contribution      =   70793.34121958 Ry
     xc contribution           =  -14204.03508154 Ry
     ewald contribution        =   49621.72806854 Ry

     convergence has been achieved in  22 iterations

     negative rho (up, down):  7.835E+00 0.000E+00

     Forces acting on atoms (cartesian axes, Ry/au):

     atom    1 type  1   force =     0.00000000   -0.00164927    0.02673176
     atom    2 type  1   force =    -0.00000216   -0.00164925    0.02672996
     atom    3 type  1   force =     0.00000000   -0.00165100    0.02672949
     atom    4 type  1   force =     0.00000000   -0.00164984    0.02673140
     atom    5 type  1   force =     0.00000216   -0.00164925    0.02672996
     atom    6 type  1   force =    -0.00000214   -0.00164988    0.02672962
     atom    7 type  1   force =     0.00000000   -0.00165166    0.02672936
     atom    8 type  1   force =     0.00000000   -0.00165026    0.02673165
     atom    9 type  1   force =     0.00000214   -0.00164988    0.02672962
     atom   10 type  1   force =    -0.00000196   -0.00164988    0.02672981
     atom   11 type  1   force =     0.00000000   -0.00165184    0.02672995
     atom   12 type  1   force =     0.00000000   -0.00164919    0.02673207
     atom   13 type  1   force =     0.00000196   -0.00164988    0.02672981
     atom   14 type  1   force =    -0.00000210   -0.00164935    0.02672980
     atom   15 type  1   force =     0.00000000   -0.00165113    0.02672967
     atom   16 type  1   force =     0.00000210   -0.00164935    0.02672980
     atom   17 type  1   force =    -0.00000236    0.00337711   -0.01649472
     atom   18 type  1   force =    -0.00000248    0.00337619   -0.01649450
     atom   19 type  1   force =     0.00000248    0.00337619   -0.01649450
     atom   20 type  1   force =    -0.00000235    0.00337669   -0.01649475
     atom   21 type  1   force =     0.00000246    0.00337585   -0.01649449
     atom   22 type  1   force =     0.00000236    0.00337711   -0.01649472
     atom   23 type  1   force =    -0.00000234    0.00337686   -0.01649435
     atom   24 type  1   force =    -0.00000246    0.00337585   -0.01649449
     atom   25 type  1   force =    -0.00000241    0.00337600   -0.01649411
     atom   26 type  1   force =     0.00000235    0.00337669   -0.01649475
     atom   27 type  1   force =    -0.00000209   -0.00162232   -0.00959539
     atom   28 type  1   force =    -0.00000211   -0.00162238   -0.00959527
     atom   29 type  1   force =     0.00000000   -0.00162225   -0.00959395
     atom   30 type  1   force =    -0.00000252    0.00337624   -0.01649418
     atom   31 type  1   force =     0.00000241    0.00337600   -0.01649411
     atom   32 type  1   force =     0.00000000   -0.00162214   -0.00959752
     atom   33 type  1   force =     0.00000209   -0.00162232   -0.00959539
     atom   34 type  1   force =    -0.00000240    0.00337714   -0.01649435
     atom   35 type  1   force =     0.00000252    0.00337624   -0.01649418
     atom   36 type  1   force =     0.00000234    0.00337686   -0.01649435
     atom   37 type  1   force =     0.00000240    0.00337714   -0.01649435
     atom   38 type  1   force =     0.00000000   -0.00162236   -0.00959724
     atom   39 type  1   force =     0.00000211   -0.00162238   -0.00959527
     atom   40 type  1   force =     0.00000216   -0.00162219   -0.00959494
     atom   41 type  1   force =    -0.00000216   -0.00162219   -0.00959494
     atom   42 type  1   force =     0.00000000   -0.00162213   -0.00959706
     atom   43 type  1   force =     0.00000000   -0.00162244   -0.00959381
     atom   44 type  1   force =    -0.00000215   -0.00162188   -0.00959526
     atom   45 type  1   force =     0.00000000   -0.00162185   -0.00959727
     atom   46 type  1   force =     0.00000000   -0.00162218   -0.00959363
     atom   47 type  1   force =     0.00000215   -0.00162188   -0.00959526
     atom   48 type  1   force =     0.00000000   -0.00162189   -0.00959375
     atom   49 type  1   force =    -0.00000218    0.00056266   -0.00384076
     atom   50 type  1   force =     0.00000181   -0.00053507    0.00457838
     atom   51 type  1   force =     0.00000000    0.00056236   -0.00384092
     atom   52 type  1   force =     0.00000218    0.00056266   -0.00384076
     atom   53 type  1   force =    -0.00000194   -0.00053513    0.00457952
     atom   54 type  1   force =    -0.00000181   -0.00053507    0.00457838
     atom   55 type  1   force =    -0.00000214    0.00056236   -0.00384069
     atom   56 type  1   force =     0.00000000    0.00056211   -0.00384080
     atom   57 type  1   force =     0.00000000    0.00056222   -0.00384067
     atom   58 type  1   force =     0.00000000    0.00056231   -0.00384073
     atom   59 type  1   force =     0.00000214    0.00056236   -0.00384069
     atom   60 type  1   force =     0.00000000    0.00056295   -0.00383907
[...]
     atom  274 type  1   force =     0.00000096    0.00164536   -0.02671908
     atom  275 type  1   force =    -0.00000105    0.00164571   -0.02671874
     atom  276 type  1   force =     0.00000045    0.00164794   -0.02671556
     atom  277 type  1   force =    -0.00000047    0.00164842   -0.02671540
     atom  278 type  1   force =    -0.00000045    0.00164794   -0.02671556
     atom  279 type  1   force =    -0.00000048    0.00164818   -0.02671559
     atom  280 type  1   force =     0.00000098    0.00164650   -0.02671897
     atom  281 type  1   force =     0.00000105    0.00164571   -0.02671874
     atom  282 type  1   force =    -0.00000098    0.00164650   -0.02671897
     atom  283 type  1   force =    -0.00000096    0.00164536   -0.02671908
     atom  284 type  1   force =     0.00000047    0.00164842   -0.02671540
     atom  285 type  1   force =     0.00000041    0.00164751   -0.02671560
     atom  286 type  1   force =     0.00000048    0.00164818   -0.02671559
     atom  287 type  1   force =     0.00000103    0.00164603   -0.02671897
     atom  288 type  1   force =    -0.00000103    0.00164603   -0.02671897

     Total force =     0.190400     Total SCF correction =     0.003126

     General routines

     Parallel routines

   This run was terminated on:  12:40:34  17Sep2021

   JOB DONE.