     Program PWSCF v.6.6 starts on 23Sep2021 at  2:47:19

     K-points division:     npool     =       8
     R & G space division:  proc/nbgrp/npool/nimage =      24
     Fft bands division:     nmany     =       1
     Reading input from ../inputs/input_ausurf_432

     Current dimensions of program PWSCF are:
     Max number of different atomic species (ntypx) = 10
     Max number of k-points (npk) =  40000
     Max angular momentum in pseudopotentials (lmaxx) =  3

     Subspace diagonalization in iterative solution of the eigenvalue problem:
     one sub-group per band group will be used

     Found symmetry operation: I + (  0.1667  0.0000  0.0000)
     This is a supercell, fractional translations are disabled
     Message from routine divide_et_impera:
     suboptimal parallelization: some nodes have no k-points

     Title:
      Ausurf

     bravais-lattice index     =            8
     lattice parameter (alat)  =      33.4482  a.u.
     unit-cell volume          =   77333.9228 (a.u.)^3
     number of atoms/cell      =          432
     number of atomic types    =            1
     number of electrons       =      4752.00
     number of Kohn-Sham states=         2851
     kinetic-energy cutoff     =      40.0000  Ry
     charge density cutoff     =     350.0000  Ry
     convergence threshold     =      1.0E-06
     mixing beta               =       0.7000
     number of iterations used =            8  TF        mixing
     Exchange-correlation=  SLA  PW   PBE  PBE
                           (   1   4   3   4   0   0   0)

     celldm(1)=  33.448152  celldm(2)=   1.154701  celldm(3)=   1.789717
     celldm(4)=   0.000000  celldm(5)=   0.000000  celldm(6)=   0.000000

     crystal axes: (cart. coord. in units of alat)
               a(1) = (   1.000000   0.000000   0.000000 )
               a(2) = (   0.000000   1.154701   0.000000 )
               a(3) = (   0.000000   0.000000   1.789717 )

     reciprocal axes: (cart. coord. in units 2 pi/alat)
               b(1) = (  1.000000  0.000000  0.000000 )
               b(2) = (  0.000000  0.866025  0.000000 )
               b(3) = (  0.000000  0.000000  0.558748 )

     PseudoPot. # 1 for Au read from file:
     /marconi/home/userexternal/czeni000/dft_src/pseudo/Au.pbe-nd-van.UPF
     MD5 check sum: deb5c07af10777505a79e28f5b4b4115
     Pseudo is Ultrasoft + core correction, Zval = 11.0
     Generated by new atomic code, or converted to UPF format
     Using radial grid of  985 points,  3 beta functions with:
                l(1) =   1
                l(2) =   2
                l(3) =   2
     Q(r) pseudized with  8 coefficients,  rinner =    1.100   1.100   1.100
                                                       1.100   1.100

     atomic species   valence    mass     pseudopotential
        Au            11.00   196.96000     Au( 1.00)

      2 Sym. Ops. (no inversion) found

   Cartesian axes

     site n.     atom                  positions (alat units)
         1           Au  tau(   1) = (   0.0000000   0.0000000   0.0000000  )
         2           Au  tau(   2) = (   0.1666667   0.0000000   0.0000000  )
         3           Au  tau(   3) = (   0.3333333   0.0000000   0.0000000  )
         4           Au  tau(   4) = (   0.0000000   0.2886751   0.0000000  )
         5           Au  tau(   5) = (   0.5000000   0.0000000   0.0000000  )
         6           Au  tau(   6) = (   0.1666667   0.2886751   0.0000000  )
         7           Au  tau(   7) = (   0.6666667   0.0000000   0.0000000  )
         8           Au  tau(   8) = (   0.3333333   0.2886751   0.0000000  )
         9           Au  tau(   9) = (   0.8333333   0.0000000   0.0000000  )
        10           Au  tau(  10) = (   0.0000000   0.5773503   0.0000000  )
        11           Au  tau(  11) = (   0.5000000   0.2886751   0.0000000  )
        12           Au  tau(  12) = (   0.1666667   0.5773503   0.0000000  )
        13           Au  tau(  13) = (   0.6666667   0.2886751   0.0000000  )
        14           Au  tau(  14) = (   0.3333333   0.5773503   0.0000000  )
        15           Au  tau(  15) = (   0.8333333   0.2886751   0.0000000  )
        16           Au  tau(  16) = (   0.0000000   0.8660254   0.0000000  )
        17           Au  tau(  17) = (   0.5000000   0.5773503   0.0000000  )
        18           Au  tau(  18) = (   0.1666667   0.8660254   0.0000000  )
        19           Au  tau(  19) = (   0.6666667   0.5773503   0.0000000  )
        20           Au  tau(  20) = (   0.3333333   0.8660254   0.0000000  )
        21           Au  tau(  21) = (   0.8333333   0.5773503   0.0000000  )
        22           Au  tau(  22) = (   0.5000000   0.8660254   0.0000000  )
        23           Au  tau(  23) = (   0.6666667   0.8660254   0.0000000  )
        24           Au  tau(  24) = (   0.8333333   0.8660254   0.0000000  )
        25           Au  tau(  25) = (   0.0833333   0.0481125   0.1360828  )
        26           Au  tau(  26) = (   0.2500000   0.0481125   0.1360828  )
        27           Au  tau(  27) = (   0.4166667   0.0481125   0.1360828  )
        28           Au  tau(  28) = (   0.0833333   0.3367877   0.1360828  )
        29           Au  tau(  29) = (   0.4166667   0.3367877   0.1360828  )
        30           Au  tau(  30) = (   0.5833333   0.0481125   0.1360828  )
        31           Au  tau(  31) = (   0.9166667   0.0481125   0.1360828  )
        32           Au  tau(  32) = (   0.0833333   0.6254628   0.1360828  )
        33           Au  tau(  33) = (   0.2500000   0.3367877   0.1360828  )
        34           Au  tau(  34) = (   0.2500000   0.6254628   0.1360828  )
        35           Au  tau(  35) = (   0.5833333   0.3367877   0.1360828  )
        36           Au  tau(  36) = (   0.7500000   0.0481125   0.1360828  )
        37           Au  tau(  37) = (   0.7500000   0.3367877   0.1360828  )
        38           Au  tau(  38) = (   0.1666667   0.1924501   0.1360828  )
        39           Au  tau(  39) = (   0.1666667   0.4811252   0.1360828  )
        40           Au  tau(  40) = (   0.6666667   0.1924501   0.1360828  )
        41           Au  tau(  41) = (   0.2500000   0.9141379   0.1360828  )
        42           Au  tau(  42) = (   0.4166667   0.6254628   0.1360828  )
        43           Au  tau(  43) = (   0.7500000   0.6254628   0.1360828  )
        44           Au  tau(  44) = (   0.9166667   0.3367877   0.1360828  )
        45           Au  tau(  45) = (   0.3333333   0.1924501   0.1360828  )
        46           Au  tau(  46) = (   0.5000000   0.1924501   0.1360828  )
        47           Au  tau(  47) = (   0.0833333   0.9141379   0.1360828  )
        48           Au  tau(  48) = (   0.4166667   0.9141379   0.1360828  )
        49           Au  tau(  49) = (   0.5833333   0.6254628   0.1360828  )
        50           Au  tau(  50) = (   0.5833333   0.9141379   0.1360828  )
        51           Au  tau(  51) = (   0.9166667   0.6254628   0.1360828  )
        52           Au  tau(  52) = (   0.3333333   0.4811252   0.1360828  )
        53           Au  tau(  53) = (   0.5000000   0.4811252   0.1360828  )
        54           Au  tau(  54) = (   0.5000000   0.7698003   0.1360828  )
        55           Au  tau(  55) = (   0.8333333   0.1924501   0.1360828  )
        56           Au  tau(  56) = (   1.0000000   0.1924501   0.1360828  )
        57           Au  tau(  57) = (   1.0000000   0.4811252   0.1360828  )
        58           Au  tau(  58) = (   0.7500000   0.9141379   0.1360828  )
        59           Au  tau(  59) = (   0.1666667   0.7698003   0.1360828  )
        60           Au  tau(  60) = (   0.3333333   0.7698003   0.1360828  )
[...]
       418           Au  tau( 418) = (   0.2500000   0.1443376   1.2247449  )
       419           Au  tau( 419) = (   0.2500000   0.4330127   1.2247449  )
       420           Au  tau( 420) = (   0.4166667   0.1443376   1.2247449  )
       421           Au  tau( 421) = (   0.4166667   0.7216879   1.2247449  )
       422           Au  tau( 422) = (   0.5833333   0.1443376   1.2247449  )
       423           Au  tau( 423) = (   0.5833333   0.7216879   1.2247449  )
       424           Au  tau( 424) = (   0.7500000   0.1443376   1.2247449  )
       425           Au  tau( 425) = (   0.9166667   0.4330127   1.2247449  )
       426           Au  tau( 426) = (   0.5833333   1.0103630   1.2247449  )
       427           Au  tau( 427) = (   0.7500000   1.0103630   1.2247449  )
       428           Au  tau( 428) = (   0.9166667   1.0103630   1.2247449  )
       429           Au  tau( 429) = (   0.2500000   1.0103630   1.2247449  )
       430           Au  tau( 430) = (   0.4166667   1.0103630   1.2247449  )
       431           Au  tau( 431) = (   0.7500000   0.7216879   1.2247449  )
       432           Au  tau( 432) = (   0.9166667   0.7216879   1.2247449  )

     number of k points=     4  Marzari-Vanderbilt smearing, width (Ry)=  0.0500
                       cart. coord. in units 2pi/alat
        k(    1) = (   0.1250000   0.1082532   0.0000000), wk =   0.5000000
        k(    2) = (   0.1250000   0.3247595   0.0000000), wk =   0.5000000
        k(    3) = (   0.3750000   0.1082532   0.0000000), wk =   0.5000000
        k(    4) = (   0.3750000   0.3247595   0.0000000), wk =   0.5000000

     Initial potential from superposition of free atoms

     starting charge 4746.98365, renormalised to 4752.00000

     negative rho (up, down):  1.152E+01 0.000E+00
     Starting wfcs are 3888 randomized atomic wfcs

     Self-consistent Calculation

     iteration #  1     ecut=    40.00 Ry     beta= 0.70
     Davidson diagonalization with overlap
     ethr =  1.00E-02,  avg # of iterations =  3.0

     Threshold (ethr) on eigenvalues was too large:
     Diagonalizing with lowered threshold

     Davidson diagonalization with overlap
     ethr =  3.34E-04,  avg # of iterations =  4.0

     negative rho (up, down):  1.095E+01 0.000E+00

     total energy              =  -44077.60662948 Ry
     estimated scf accuracy    <      18.95651337 Ry

[...]

     iteration #  4     ecut=    40.00 Ry     beta= 0.70
     Davidson diagonalization with overlap
     c_bands:  1 eigenvalues not converged
     ethr =  1.04E-04,  avg # of iterations = 10.5

[...]

     total energy              =  -44078.14019516 Ry
     estimated scf accuracy    <       0.00000156 Ry

     iteration # 24     ecut=    40.00 Ry     beta= 0.70
     Davidson diagonalization with overlap
     ethr =  3.28E-11,  avg # of iterations =  2.8

[...]

     End of self-consistent calculation

          k = 0.1250 0.1083 0.0000 (330335 PWs)   bands (ev):

    -0.8185  -0.4827  -0.4768  -0.3733  -0.2667  -0.1473  -0.0896  -0.0571
    -0.0401   0.0201   0.0628   0.1473   0.2076   0.2352   0.2657   0.3412
     0.4003   0.4462   0.4618   0.5183   0.5429   0.5961   0.6022   0.7003
     0.7096   0.7366   0.8848   0.9107   0.9153   0.9199   0.9698   0.9865
     1.0153   1.0410   1.1037   1.1198   1.1346   1.1663   1.1716   1.1992
     1.2425   1.2496   1.2681   1.2861   1.2894   1.2926   1.3020   1.4025
     1.4297   1.4318   1.4384   1.4416   1.4557   1.4563   1.4592   1.4811
[...]
     1.9474   1.9557   1.9559   1.9570   1.9674   1.9679   1.9802   1.9822
     1.9851   1.9916   1.9987   2.0114   2.0130   2.0160   2.0173   2.0212
     2.0265   2.0279   2.0322   2.0357   2.0413   2.0442   2.0452   2.0454
     2.0515   2.0614   2.0654   2.0680   2.0760   2.0815   2.0935   2.0977
     2.1007   2.1023   2.1187   2.1193   2.1198   2.1231   2.1231   2.1236
     2.1247   2.1252   2.1276   2.1292   2.1376   2.1408   2.1442   2.1503
     2.1508   2.1520   2.1554   2.1571   2.1586   2.1605   2.1641   2.1653
     2.1661   2.1763   2.1787   2.1823   2.1827   2.1957   2.2031   2.2042
     2.2101   2.2119   2.2129   2.2158   2.2187   2.2191   2.2191   2.2196
     2.2232   2.2265   2.2275   2.2325   2.2377   2.2412   2.2434   2.2448
     2.2478   2.2508   2.2579   2.2599   2.2612   2.2634   2.2685   2.2763
     2.2904   2.2919   2.2983   2.2990   2.2997   2.3022   2.3071   2.3079
     2.3085   2.3097   2.3106   2.3114   2.3123   2.3156   2.3200   2.3208
     2.3249   2.3255   2.3261   2.3282   2.3283   2.3334   2.3344   2.3435
     2.3466   2.3513   2.3533   2.3553   2.3597   2.3633   2.3669   2.3721
     2.3727   2.3755   2.3858   2.3864   2.3882   2.3896   2.3905   2.3924
     2.3941   2.3990   2.4023   2.4124   2.4127   2.4129   2.4157   2.4160
     2.4258   2.4264   2.4308   2.4340   2.4418   2.4433   2.4442   2.4462
     2.4468   2.4483   2.4496   2.4499   2.4520   2.4521   2.4559   2.4605
     2.4651   2.4728   2.4739   2.4751   2.4765   2.4823   2.4850   2.4851
     2.4855   2.4889   2.4912   2.4952   2.4982   2.5037   2.5099   2.5115
     2.5118   2.5123   2.5184   2.5192   2.5199   2.5231   2.5232   2.5248
     2.5342   2.5368   2.5379   2.5414   2.5440   2.5458   2.5471   2.5513
     2.5540   2.5569   2.5722   2.5758   2.5779   2.5780   2.5783   2.5813
     2.5819   2.5822   2.5847   2.5850   2.5872   2.5936   2.5947   2.5951
     2.5962   2.5967   2.6018   2.6043   2.6058   2.6115   2.6176   2.6263
     2.6265   2.6284   2.6326   2.6329   2.6355   2.6361   2.6377   2.6392
     2.6444   2.6522   2.6611   2.6642   2.6653   2.6668   2.6741   2.6753
     2.6759   2.6801   2.6816   2.6826   2.6892   2.6903   2.6915   2.6958
     2.6969   2.7011   2.7023   2.7071   2.7139   2.7150   2.7151   2.7206
     2.7228   2.7254   2.7257   2.7267   2.7271   2.7298   2.7347   2.7367
     2.7399   2.7410   2.7411   2.7441   2.7443   2.7524   2.7542   2.7586
     2.7645   2.7672   2.7694   2.7699   2.7799   2.7801   2.7820   2.7828
     2.7829   2.7833   2.7866   2.7883   2.7887   2.7891   2.7952   2.7989
     2.7999   2.8037   2.8113   2.8136   2.8149   2.8168   2.8174   2.8186
     2.8212   2.8272   2.8286   2.8375   2.8400   2.8472   2.8480   2.8506
     2.8518   2.8535   2.8537   2.8597   2.8608   2.8610   2.8611   2.8627
     2.8698   2.8752   2.8827   2.8939   2.8959   2.8970   2.8988   2.9019
     2.9022   2.9040   2.9042   2.9056   2.9090   2.9141   2.9144   2.9152
     2.9249   2.9271   2.9305   2.9313   2.9331   2.9340   2.9356   2.9359
     2.9446   2.9502   2.9631   2.9646   2.9657   2.9661   2.9684   2.9721
     2.9726   2.9765   2.9775   2.9983   3.0080   3.0098   3.0123   3.0131
     3.0162   3.0278   3.0281   3.0359   3.0377   3.0378   3.0391   3.0407
     3.0423   3.0544   3.0547   3.0621   3.0643   3.0683   3.0720   3.0798
     3.0807   3.0822   3.0851   3.0852   3.0920   3.0973   3.0976   3.0977
     3.0987   3.0991   3.1050   3.1091   3.1139   3.1178   3.1237   3.1261
[...]
    13.3824  13.3859  13.3905  13.4016  13.4135  13.4185  13.4279  13.4302
    13.4325  13.4657  13.4716  13.4738  13.5036  13.5063  13.5113  13.5341
    13.5498  13.5699  13.5751  13.5873  13.5920  13.6077  13.6097  13.6200
    13.6203  13.6514  13.6601  13.6740  13.6854  13.6857  13.6955  13.7061
    13.7162  13.7210  13.7295  13.7548  13.7640  13.7696  13.7713  13.7714
    13.7756  13.8006  13.8183  13.8184  13.8194  13.8246  13.8289  13.8302
    13.8326  13.8369  13.8620  13.8959  13.9032  13.9039  13.9132  13.9154
    13.9264  13.9378  13.9579  13.9730  13.9906  13.9954  13.9967  14.0050
    14.0243  14.0308  14.0310  14.0542  14.0576  14.0732  14.0854  14.1160
    14.1179  14.1197  14.1504  14.1515  14.1523  14.1567  14.1588  14.1629
    14.1634  14.1651  14.1874  14.1920  14.2049  14.2512  14.2531  14.2828
    14.2910  14.2959  14.3036  14.3120  14.3288  14.3299  14.3477  14.3720
    14.3824  14.3841  14.4017  14.4035  14.4065  14.4102  14.4230  14.4261
    14.4574  14.4595  14.4621  14.5036  14.5058  14.5122  14.5784  14.5842
    14.6062  14.6327  14.6485

[...]

          k = 0.3750 0.3248 0.0000 (330443 PWs)   bands (ev):

    -0.6863  -0.5745  -0.5377  -0.4279  -0.3467  -0.2370  -0.2008  -0.0936
     0.0632   0.1477   0.1998   0.2546   0.2901   0.2941   0.3564   0.3809
     0.3831   0.3938   0.4900   0.5120   0.6016   0.6587   0.6674   0.6842
     0.7224   0.7388   0.7857   0.8272   0.8433   0.8625   0.8962   0.9510
     0.9632   0.9667   1.0143   1.0491   1.0954   1.1201   1.1371   1.1485
     1.1573   1.2135   1.2455   1.2657   1.3386   1.3490   1.3595   1.3764
     1.3833   1.3847   1.3860   1.4023   1.4063   1.4720   1.4834   1.4859
     1.5008   1.5216   1.5582   1.5634   1.5730   1.5768   1.5789   1.6007
     1.6089   1.6095   1.6150   1.6300   1.6307   1.6518   1.6633   1.6703
     1.6737   1.6897   1.6898   1.6925   1.6966   1.7017   1.7101   1.7103
     1.7254   1.7652   1.7735   1.7765   1.7778   1.7788   1.7852   1.7857
     1.7919   1.7978   1.8101   1.8150   1.8173   1.8220   1.8253   1.8339
     1.8393   1.8487   1.8565   1.8727   1.8779   1.8843   1.8849   1.8927
     1.8932   1.8950   1.8996   1.9200   1.9208   1.9226   1.9260   1.9301
     1.9329   1.9366   1.9459   1.9539   1.9555   1.9581   1.9598   1.9618
     1.9665   1.9718   1.9914   2.0006   2.0018   2.0062   2.0114   2.0197
     2.0210   2.0287   2.0406   2.0438   2.0517   2.0552   2.0595   2.0596
     2.0606   2.0672   2.0700   2.0745   2.0771   2.0798   2.0834   2.0913
     2.0939   2.1047   2.1079   2.1133   2.1168   2.1230   2.1233   2.1269
     2.1295   2.1300   2.1345   2.1361   2.1367   2.1398   2.1571   2.1572
     2.1636   2.1665   2.1761   2.1864   2.1913   2.1922   2.1985   2.2004
     2.2017   2.2073   2.2102   2.2116   2.2127   2.2245   2.2263   2.2267
     2.2272   2.2319   2.2328   2.2333   2.2352   2.2358   2.2450   2.2464
     2.2502   2.2534   2.2551   2.2599   2.2652   2.2663   2.2683   2.2701
     2.2724   2.2730   2.2734   2.2777   2.2813   2.2818   2.2818   2.2844
     2.2879   2.2881   2.2974   2.3015   2.3050   2.3060   2.3060   2.3076
     2.3101   2.3112   2.3142   2.3185   2.3205   2.3225   2.3228   2.3308
     2.3353   2.3400   2.3401   2.3413   2.3439   2.3462   2.3504   2.3508
     2.3540   2.3571   2.3599   2.3639   2.3651   2.3663   2.3678   2.3684
     2.3701   2.3744   2.3751   2.3754   2.3763   2.3802   2.3896   2.4010
     2.4039   2.4041   2.4051   2.4140   2.4147   2.4193   2.4202   2.4205
     2.4222   2.4229   2.4235   2.4243   2.4296   2.4299   2.4334   2.4409
     2.4439   2.4451   2.4454   2.4457   2.4481   2.4489   2.4491   2.4518
     2.4535   2.4563   2.4599   2.4600   2.4614   2.4652   2.4681   2.4702
     2.4726   2.4847   2.4894   2.4951   2.4956   2.4961   2.4962   2.4963
     2.5004   2.5011   2.5067   2.5082   2.5100   2.5166   2.5208   2.5236
     2.5262   2.5289   2.5294   2.5306   2.5331   2.5357   2.5372   2.5409
     2.5438   2.5444   2.5455   2.5503   2.5532   2.5552   2.5564   2.5627
     2.5674   2.5678   2.5711   2.5741   2.5749   2.5751   2.5828   2.5828
     2.5832   2.5838   2.5850   2.5881   2.5914   2.6021   2.6058   2.6081
     2.6090   2.6113   2.6116   2.6132   2.6138   2.6200   2.6330   2.6363
     2.6373   2.6414   2.6436   2.6452   2.6512   2.6541   2.6587   2.6659
     2.6713   2.6724   2.6735   2.6766   2.6786   2.6788   2.6813   2.6830
     2.6852   2.6876   2.6881   2.6922   2.6927   2.6953   2.6960   2.7089
     2.7106   2.7111   2.7139   2.7140   2.7269   2.7302   2.7305   2.7311
     2.7331   2.7359   2.7391   2.7397   2.7410   2.7429   2.7454   2.7479
     2.7577   2.7606   2.7612   2.7617   2.7628   2.7673   2.7679   2.7689
     2.7730   2.7780   2.7785   2.7790   2.7809   2.7851   2.7866   2.7886
     2.7922   2.7940   2.7963   2.7965   2.7994   2.8078   2.8082   2.8086
     2.8086   2.8134   2.8145   2.8161   2.8164   2.8174   2.8204   2.8213
     2.8237   2.8273   2.8314   2.8386   2.8399   2.8401   2.8463   2.8492
     2.8529   2.8631   2.8634   2.8649   2.8698   2.8703   2.8730   2.8774
     2.8775   2.8796   2.8853   2.8906   2.8971   2.9001   2.9025   2.9087
     2.9096   2.9108   2.9148   2.9205   2.9230   2.9394   2.9399   2.9616
     2.9630   2.9653   2.9662   2.9726   2.9741   2.9779   2.9874   2.9878
     2.9933   2.9986   2.9992   3.0066   3.0074   3.0143   3.0159   3.0159
     3.0167   3.0214   3.0249   3.0254   3.0325   3.0411   3.0412   3.0478
     3.0504   3.0618   3.0626   3.0638   3.0654   3.0710   3.0822   3.0823
     3.0846   3.0867   3.0953   3.0954   3.0975   3.0987   3.1008   3.1009
     3.1016   3.1120   3.1133   3.1164   3.1179   3.1222   3.1257   3.1288
[...]
    13.3936  13.3960  13.4078  13.4106  13.4374  13.4743  13.4789  13.4813
    13.4891  13.4927  13.4959  13.5146  13.5228  13.5237  13.5366  13.5485
    13.5490  13.5580  13.5684  13.5819  13.5849  13.5901  13.6052  13.6390
    13.6445  13.6710  13.6793  13.6968  13.7055  13.7061  13.7081  13.7129
    13.7485  13.7489  13.7607  13.7639  13.7696  13.7714  13.7718  13.8009
    13.8111  13.8265  13.8525  13.8663  13.8668  13.8709  13.8788  13.8884
    13.8887  13.8913  13.9076  13.9269  13.9382  13.9509  13.9627  13.9715
    14.0425  14.0490  14.0539  14.0790  14.0846  14.0901  14.0901  14.1265
    14.1281  14.1418  14.1535  14.1562  14.1598  14.1620  14.1679  14.1760
    14.1875  14.1947  14.2103  14.2199  14.2289  14.2290  14.2326  14.2394
    14.2525  14.2672  14.2688  14.2689  14.2989  14.3170  14.3421  14.3437
    14.3482  14.3540  14.3604  14.3688  14.4006  14.4184  14.4227  14.4263
    14.4284  14.4331  14.4477  14.4518  14.4641  14.4749  14.4951  14.4981
    14.5122  14.5305  14.5430  14.5736  14.5832  14.6092  14.6342  14.6451
    14.6699  14.7260  14.7593

     the Fermi energy is     8.2691 ev

!    total energy              =  -44078.14019525 Ry
     estimated scf accuracy    <       0.00000003 Ry
     smearing contrib. (-TS)   =       0.56897831 Ry
     internal energy E=F+TS    =  -44078.70917356 Ry

     The total energy is F=E-TS. E is the sum of the following terms:
     one-electron contribution = -203395.56191139 Ry
     hartree contribution      =  106190.30751462 Ry
     xc contribution           =  -21306.04687961 Ry
     ewald contribution        =   74432.59210282 Ry

     convergence has been achieved in  24 iterations

     negative rho (up, down):  1.175E+01 0.000E+00

     Forces acting on atoms (cartesian axes, Ry/au):

     atom    1 type  1   force =     0.00000000   -0.00165442    0.02672029
     atom    2 type  1   force =    -0.00000121   -0.00165143    0.02672780
     atom    3 type  1   force =     0.00000093   -0.00165139    0.02672788
     atom    4 type  1   force =     0.00000000   -0.00165466    0.02671998
     atom    5 type  1   force =     0.00000000   -0.00165449    0.02672030
     atom    6 type  1   force =    -0.00000125   -0.00165173    0.02672765
     atom    7 type  1   force =    -0.00000093   -0.00165139    0.02672788
     atom    8 type  1   force =     0.00000090   -0.00165163    0.02672771
     atom    9 type  1   force =     0.00000121   -0.00165143    0.02672780
     atom   10 type  1   force =     0.00000000   -0.00165483    0.02672022
     atom   11 type  1   force =     0.00000000   -0.00165475    0.02672017
     atom   12 type  1   force =    -0.00000122   -0.00165186    0.02672781
     atom   13 type  1   force =    -0.00000090   -0.00165163    0.02672771
     atom   14 type  1   force =     0.00000089   -0.00165183    0.02672787
     atom   15 type  1   force =     0.00000125   -0.00165173    0.02672765
     atom   16 type  1   force =     0.00000000   -0.00165459    0.02672018
     atom   17 type  1   force =     0.00000000   -0.00165486    0.02672036
     atom   18 type  1   force =    -0.00000121   -0.00165157    0.02672786
     atom   19 type  1   force =    -0.00000089   -0.00165183    0.02672787
     atom   20 type  1   force =     0.00000097   -0.00165155    0.02672795
     atom   21 type  1   force =     0.00000122   -0.00165186    0.02672781
     atom   22 type  1   force =     0.00000000   -0.00165467    0.02672030
     atom   23 type  1   force =    -0.00000097   -0.00165155    0.02672795
     atom   24 type  1   force =     0.00000121   -0.00165157    0.02672786
     atom   25 type  1   force =     0.00000025    0.00335863   -0.01657316
     atom   26 type  1   force =    -0.00000011    0.00335967   -0.01657483
     atom   27 type  1   force =    -0.00000034    0.00335862   -0.01657300
     atom   28 type  1   force =     0.00000026    0.00335842   -0.01657326
     atom   29 type  1   force =    -0.00000035    0.00335839   -0.01657305
     atom   30 type  1   force =     0.00000034    0.00335862   -0.01657300
     atom   31 type  1   force =    -0.00000025    0.00335863   -0.01657316
     atom   32 type  1   force =     0.00000025    0.00335845   -0.01657299
     atom   33 type  1   force =    -0.00000013    0.00335947   -0.01657488
     atom   34 type  1   force =    -0.00000009    0.00335954   -0.01657468
     atom   35 type  1   force =     0.00000035    0.00335839   -0.01657305
     atom   36 type  1   force =     0.00000011    0.00335967   -0.01657483
     atom   37 type  1   force =     0.00000013    0.00335947   -0.01657488
     atom   38 type  1   force =    -0.00000075   -0.00160167   -0.00966641
     atom   39 type  1   force =    -0.00000076   -0.00160170   -0.00966632
     atom   40 type  1   force =    -0.00000058   -0.00160167   -0.00966630
     atom   41 type  1   force =    -0.00000010    0.00335969   -0.01657464
     atom   42 type  1   force =    -0.00000035    0.00335847   -0.01657286
     atom   43 type  1   force =     0.00000009    0.00335954   -0.01657468
     atom   44 type  1   force =    -0.00000026    0.00335842   -0.01657326
     atom   45 type  1   force =     0.00000058   -0.00160167   -0.00966630
     atom   46 type  1   force =     0.00000000   -0.00160232   -0.00965996
     atom   47 type  1   force =     0.00000025    0.00335861   -0.01657299
     atom   48 type  1   force =    -0.00000035    0.00335864   -0.01657284
     atom   49 type  1   force =     0.00000035    0.00335847   -0.01657286
     atom   50 type  1   force =     0.00000035    0.00335864   -0.01657284
     atom   51 type  1   force =    -0.00000025    0.00335845   -0.01657299
     atom   52 type  1   force =     0.00000061   -0.00160173   -0.00966621
     atom   53 type  1   force =     0.00000000   -0.00160233   -0.00965986
     atom   54 type  1   force =     0.00000000   -0.00160233   -0.00965972
     atom   55 type  1   force =     0.00000075   -0.00160167   -0.00966641
     atom   56 type  1   force =     0.00000000   -0.00160229   -0.00966014
     atom   57 type  1   force =     0.00000000   -0.00160234   -0.00966004
     atom   58 type  1   force =     0.00000010    0.00335969   -0.01657464
     atom   59 type  1   force =    -0.00000077   -0.00160171   -0.00966619
     atom   60 type  1   force =     0.00000060   -0.00160173   -0.00966607
[...]
     atom  418 type  1   force =     0.00000003    0.00164994   -0.02670761
     atom  419 type  1   force =     0.00000005    0.00164978   -0.02670754
     atom  420 type  1   force =     0.00000050    0.00164989   -0.02671379
     atom  421 type  1   force =     0.00000053    0.00164970   -0.02671375
     atom  422 type  1   force =    -0.00000050    0.00164989   -0.02671379
     atom  423 type  1   force =    -0.00000053    0.00164970   -0.02671375
     atom  424 type  1   force =    -0.00000003    0.00164994   -0.02670761
     atom  425 type  1   force =     0.00000043    0.00164978   -0.02671378
     atom  426 type  1   force =    -0.00000047    0.00164979   -0.02671375
     atom  427 type  1   force =    -0.00000006    0.00164983   -0.02670771
     atom  428 type  1   force =     0.00000049    0.00164989   -0.02671383
     atom  429 type  1   force =     0.00000006    0.00164983   -0.02670771
     atom  430 type  1   force =     0.00000047    0.00164979   -0.02671375
     atom  431 type  1   force =    -0.00000015    0.00164975   -0.02670768
     atom  432 type  1   force =     0.00000044    0.00164969   -0.02671380

     Total force =     0.233549     Total SCF correction =     0.000153

     General routines

     Parallel routines

   This run was terminated on:   6: 4:51  23Sep2021

   JOB DONE.