     Program PWSCF v.6.6 starts on  8Sep2021 at  3:39:14

     R & G space division:  proc/nbgrp/npool/nimage =      48
     Fft bands division:     nmany     =       1
     Reading input from ../inputs/input_ausurf_18

     Current dimensions of program PWSCF are:
     Max number of different atomic species (ntypx) = 10
     Max number of k-points (npk) =  40000
     Max angular momentum in pseudopotentials (lmaxx) =  3

     Subspace diagonalization in iterative solution of the eigenvalue problem:
     one sub-group per band group will be used

     Title:
      Ausurf

     bravais-lattice index     =            8
     lattice parameter (alat)  =       5.5747  a.u.
     unit-cell volume          =    3222.2468 (a.u.)^3
     number of atoms/cell      =           18
     number of atomic types    =            1
     number of electrons       =       198.00
     number of Kohn-Sham states=          119
     kinetic-energy cutoff     =      40.0000  Ry
     charge density cutoff     =     350.0000  Ry
     convergence threshold     =      1.0E-06
     mixing beta               =       0.7000
     number of iterations used =            8  TF        mixing
     Exchange-correlation=  SLA  PW   PBE  PBE
                           (   1   4   3   4   0   0   0)

     celldm(1)=   5.574692  celldm(2)=   1.732051  celldm(3)=  10.738300
     celldm(4)=   0.000000  celldm(5)=   0.000000  celldm(6)=   0.000000

     crystal axes: (cart. coord. in units of alat)
               a(1) = (   1.000000   0.000000   0.000000 )
               a(2) = (   0.000000   1.732051   0.000000 )
               a(3) = (   0.000000   0.000000  10.738300 )

     reciprocal axes: (cart. coord. in units 2 pi/alat)
               b(1) = (  1.000000  0.000000  0.000000 )
               b(2) = (  0.000000  0.577350  0.000000 )
               b(3) = (  0.000000  0.000000  0.093125 )

     PseudoPot. # 1 for Au read from file:
     /marconi/home/userexternal/czeni000/dft_src/pseudo/Au.pbe-nd-van.UPF
     MD5 check sum: deb5c07af10777505a79e28f5b4b4115
     Pseudo is Ultrasoft + core correction, Zval = 11.0
     Generated by new atomic code, or converted to UPF format
     Using radial grid of  985 points,  3 beta functions with:
                l(1) =   1
                l(2) =   2
                l(3) =   2
     Q(r) pseudized with  8 coefficients,  rinner =    1.100   1.100   1.100
                                                       1.100   1.100

     atomic species   valence    mass     pseudopotential
        Au            11.00   196.96000     Au( 1.00)

      2 Sym. Ops. (no inversion) found

   Cartesian axes

     site n.     atom                  positions (alat units)
         1           Au  tau(   1) = (   0.0000000   0.0000000   0.0000000  )
         2           Au  tau(   2) = (   0.5000000   0.2886753   0.8164966  )
         3           Au  tau(   3) = (   1.0000000   1.1547007   0.8164966  )
         4           Au  tau(   4) = (   1.0000000   0.5773502   1.6329932  )
         5           Au  tau(   5) = (   0.5000000   1.4433756   1.6329932  )
         6           Au  tau(   6) = (   0.0000000   0.0000000   2.4494898  )
         7           Au  tau(   7) = (   0.5000000   0.8660254   2.4494898  )
         8           Au  tau(   8) = (   0.5000000   0.2886753   3.2659864  )
         9           Au  tau(   9) = (   1.0000000   1.1547007   3.2659864  )
        10           Au  tau(  10) = (   1.0000000   0.5773502   4.0824831  )
        11           Au  tau(  11) = (   0.5000000   1.4433756   4.0824831  )
        12           Au  tau(  12) = (   0.0000000   0.0000000   4.8989793  )
        13           Au  tau(  13) = (   0.5000000   0.8660254   4.8989793  )
        14           Au  tau(  14) = (   0.5000000   0.2886753   5.7154759  )
        15           Au  tau(  15) = (   1.0000000   1.1547007   5.7154759  )
        16           Au  tau(  16) = (   1.0000000   0.5773502   6.5319725  )
        17           Au  tau(  17) = (   0.5000000   1.4433756   6.5319725  )
        18           Au  tau(  18) = (   0.5000000   0.8660254   7.3484692  )

     number of k points=    48  Marzari-Vanderbilt smearing, width (Ry)=  0.0500
                       cart. coord. in units 2pi/alat
        k(    1) = (   0.0312500   0.0240563   0.0000000), wk =   0.0416667
        k(    2) = (   0.0312500   0.0721688   0.0000000), wk =   0.0416667
        k(    3) = (   0.0312500   0.1202813   0.0000000), wk =   0.0416667
        k(    4) = (   0.0312500   0.1683938   0.0000000), wk =   0.0416667
        k(    5) = (   0.0312500   0.2165064   0.0000000), wk =   0.0416667
        k(    6) = (   0.0312500   0.2646189   0.0000000), wk =   0.0416667
        k(    7) = (   0.0937500   0.0240563   0.0000000), wk =   0.0416667
        k(    8) = (   0.0937500   0.0721688   0.0000000), wk =   0.0416667
        k(    9) = (   0.0937500   0.1202813   0.0000000), wk =   0.0416667
        k(   10) = (   0.0937500   0.1683938   0.0000000), wk =   0.0416667
        k(   11) = (   0.0937500   0.2165064   0.0000000), wk =   0.0416667
        k(   12) = (   0.0937500   0.2646189   0.0000000), wk =   0.0416667
        k(   13) = (   0.1562500   0.0240563   0.0000000), wk =   0.0416667
        k(   14) = (   0.1562500   0.0721688   0.0000000), wk =   0.0416667
        k(   15) = (   0.1562500   0.1202813   0.0000000), wk =   0.0416667
        k(   16) = (   0.1562500   0.1683938   0.0000000), wk =   0.0416667
        k(   17) = (   0.1562500   0.2165064   0.0000000), wk =   0.0416667
        k(   18) = (   0.1562500   0.2646189   0.0000000), wk =   0.0416667
        k(   19) = (   0.2187500   0.0240563   0.0000000), wk =   0.0416667
        k(   20) = (   0.2187500   0.0721688   0.0000000), wk =   0.0416667
        k(   21) = (   0.2187500   0.1202813   0.0000000), wk =   0.0416667
        k(   22) = (   0.2187500   0.1683938   0.0000000), wk =   0.0416667
        k(   23) = (   0.2187500   0.2165064   0.0000000), wk =   0.0416667
        k(   24) = (   0.2187500   0.2646189   0.0000000), wk =   0.0416667
        k(   25) = (   0.2812500   0.0240563   0.0000000), wk =   0.0416667
        k(   26) = (   0.2812500   0.0721688   0.0000000), wk =   0.0416667
        k(   27) = (   0.2812500   0.1202813   0.0000000), wk =   0.0416667
        k(   28) = (   0.2812500   0.1683938   0.0000000), wk =   0.0416667
        k(   29) = (   0.2812500   0.2165064   0.0000000), wk =   0.0416667
        k(   30) = (   0.2812500   0.2646189   0.0000000), wk =   0.0416667
        k(   31) = (   0.3437500   0.0240563   0.0000000), wk =   0.0416667
        k(   32) = (   0.3437500   0.0721688   0.0000000), wk =   0.0416667
        k(   33) = (   0.3437500   0.1202813   0.0000000), wk =   0.0416667
        k(   34) = (   0.3437500   0.1683938   0.0000000), wk =   0.0416667
        k(   35) = (   0.3437500   0.2165064   0.0000000), wk =   0.0416667
        k(   36) = (   0.3437500   0.2646189   0.0000000), wk =   0.0416667
        k(   37) = (   0.4062500   0.0240563   0.0000000), wk =   0.0416667
        k(   38) = (   0.4062500   0.0721688   0.0000000), wk =   0.0416667
        k(   39) = (   0.4062500   0.1202813   0.0000000), wk =   0.0416667
        k(   40) = (   0.4062500   0.1683938   0.0000000), wk =   0.0416667
        k(   41) = (   0.4062500   0.2165064   0.0000000), wk =   0.0416667
        k(   42) = (   0.4062500   0.2646189   0.0000000), wk =   0.0416667
        k(   43) = (   0.4687500   0.0240563   0.0000000), wk =   0.0416667
        k(   44) = (   0.4687500   0.0721688   0.0000000), wk =   0.0416667
        k(   45) = (   0.4687500   0.1202813   0.0000000), wk =   0.0416667
        k(   46) = (   0.4687500   0.1683938   0.0000000), wk =   0.0416667
        k(   47) = (   0.4687500   0.2165064   0.0000000), wk =   0.0416667
        k(   48) = (   0.4687500   0.2646189   0.0000000), wk =   0.0416667

     Initial potential from superposition of free atoms

     starting charge  197.79099, renormalised to  198.00000

     negative rho (up, down):  4.791E-01 0.000E+00
     Starting wfcs are  162 randomized atomic wfcs

     Self-consistent Calculation

     iteration #  1     ecut=    40.00 Ry     beta= 0.70
     Davidson diagonalization with overlap
     ethr =  1.00E-02,  avg # of iterations =  2.4

     Threshold (ethr) on eigenvalues was too large:
     Diagonalizing with lowered threshold

     Davidson diagonalization with overlap
     ethr =  3.36E-04,  avg # of iterations =  2.5

     negative rho (up, down):  4.551E-01 0.000E+00

     total energy              =   -1836.56893782 Ry
     estimated scf accuracy    <       0.78610503 Ry

[...]

     iteration #  3     ecut=    40.00 Ry     beta= 0.70
     Davidson diagonalization with overlap
     c_bands:  1 eigenvalues not converged
     ethr =  1.77E-04,  avg # of iterations =  2.6

[...]

     iteration # 20     ecut=    40.00 Ry     beta= 0.70
     Davidson diagonalization with overlap
     c_bands:  1 eigenvalues not converged
     ethr =  3.33E-09,  avg # of iterations =  4.1

[...]

     total energy              =   -1836.58919858 Ry
     estimated scf accuracy    <       0.00000215 Ry

     iteration # 21     ecut=    40.00 Ry     beta= 0.70
     Davidson diagonalization with overlap
     ethr =  1.08E-09,  avg # of iterations =  2.4

[...]

     End of self-consistent calculation

          k = 0.0312 0.0241 0.0000 ( 13817 PWs)   bands (ev):

    -0.8004  -0.4588   0.0378   0.6136   1.1371   1.4550   1.5759   1.5797
     1.6248   1.8596   1.8747   2.0440   2.1322   2.1751   2.2409   2.3289
     2.4870   2.4949   2.6720   3.0598   3.2682   3.3520   3.5644   3.7284
     3.7583   3.7655   3.8469   3.8898   3.8935   3.9117   3.9272   3.9336
     3.9608   3.9683   3.9832   4.0200   4.0414   4.0745   4.0862   4.0986
     4.1262   4.1716   4.1723   4.1779   4.2875   4.3103   4.3289   4.3547
     4.3708   4.3848   4.4984   4.5289   4.7027   4.7158   4.9062   5.0364
     5.1388   5.1749   5.1898   5.2078   5.2700   5.2773   5.2983   5.3380
     5.3429   5.4128   5.5009   5.5198   5.6302   5.6560   5.6748   5.7698
     5.8064   5.8529   5.9565   5.9947   6.0231   6.0641   6.1350   6.1971
     6.2216   6.2531   6.2916   6.3360   6.3411   6.3743   6.4059   6.4251
     6.4522   6.4872   6.5358   6.5708   6.5926   6.6085   6.6202   6.6374
     6.7418   6.7552   7.1435   7.9036   8.3916   8.7356   8.9557   9.0742
     9.3107   9.3205   9.6877   9.9249  10.0174  11.1484  11.3467  11.4779
    11.8942  12.0540  12.6331  12.7962  13.5062  13.8096  13.9671

[...]

          k = 0.4688 0.2646 0.0000 ( 13756 PWs)   bands (ev):

     1.6025   1.6265   1.8498   1.8535   1.8619   1.8756   2.0330   2.0485
     2.1276   2.1283   2.1506   2.1791   2.2285   2.2471   2.3196   2.3244
     2.4189   2.4386   2.4939   2.5035   2.6696   2.6932   3.0694   3.0903
     3.4477   3.4625   3.6471   3.6637   3.7784   3.7982   3.8679   3.8751
     3.9508   3.9593   4.1040   4.1090   4.1836   4.1912   4.4176   4.4422
     4.4679   4.4960   4.5331   4.5382   4.8767   4.9025   4.9514   4.9713
     5.0063   5.0325   5.2558   5.2650   5.3428   5.3779   5.5075   5.5598
     5.7380   5.7492   5.8384   5.8553   5.9735   6.0053   6.1600   6.1674
     6.1919   6.2354   6.2497   6.2631   6.2844   6.3047   6.3362   6.3397
     6.3637   6.3692   6.3845   6.4211   6.4251   6.4455   6.4508   6.4638
     6.5063   6.5089   6.5542   6.5670   6.6392   6.6644   6.6917   6.6934
     6.8176   6.8445   7.6075   8.0154   8.0953   8.4068   8.5049   8.6123
     8.8634   9.0157   9.0930   9.2885   9.5386   9.6071   9.7694   9.8554
    10.0817  10.2598  10.8435  10.8635  11.1070  11.1660  11.2570  11.3472
    11.8408  11.8897  12.5210  12.5503  12.6245  12.8437  13.4049

     the Fermi energy is     8.2696 ev

!    total energy              =   -1836.58919893 Ry
     estimated scf accuracy    <       0.00000030 Ry
     smearing contrib. (-TS)   =       0.02390839 Ry
     internal energy E=F+TS    =   -1836.61310732 Ry

     The total energy is F=E-TS. E is the sum of the following terms:
     one-electron contribution =   -8474.76246644 Ry
     hartree contribution      =    4424.54328119 Ry
     xc contribution           =    -887.75192747 Ry
     ewald contribution        =    3101.35800540 Ry

     convergence has been achieved in  21 iterations

     negative rho (up, down):  4.893E-01 0.000E+00

     Forces acting on atoms (cartesian axes, Ry/au):

     atom    1 type  1   force =     0.00000000   -0.00165403    0.02691422
     atom    2 type  1   force =     0.00000000    0.00336087   -0.01641687
     atom    3 type  1   force =     0.00000000   -0.00161558   -0.00951314
     atom    4 type  1   force =     0.00000000    0.00056077   -0.00370603
     atom    5 type  1   force =     0.00000000   -0.00053260    0.00471594
     atom    6 type  1   force =     0.00000000    0.00028993   -0.00068562
     atom    7 type  1   force =     0.00000000   -0.00044362   -0.00046222
     atom    8 type  1   force =     0.00000000   -0.00018725    0.00046943
     atom    9 type  1   force =     0.00000000    0.00019255   -0.00049684
     atom   10 type  1   force =     0.00000000    0.00018901   -0.00047244
     atom   11 type  1   force =     0.00000000   -0.00019191    0.00049572
     atom   12 type  1   force =     0.00000000    0.00044427    0.00046681
     atom   13 type  1   force =     0.00000000   -0.00028919    0.00068795
     atom   14 type  1   force =     0.00000000   -0.00055967    0.00369734
     atom   15 type  1   force =     0.00000000    0.00053393   -0.00472220
     atom   16 type  1   force =     0.00000000   -0.00335992    0.01641365
     atom   17 type  1   force =     0.00000000    0.00161397    0.00951046
     atom   18 type  1   force =     0.00000000    0.00164849   -0.02689617

     Total force =     0.047719     Total SCF correction =     0.002869

     General routines

     Parallel routines

   This run was terminated on:   3:43:36   8Sep2021

   JOB DONE.