     Program PWSCF v.6.6 starts on 17Sep2021 at  4: 9:34

     R & G space division:  proc/nbgrp/npool/nimage =      24
     Fft bands division:     nmany     =       1
     Reading input from ../inputs/input_ausurf_288

     Current dimensions of program PWSCF are:
     Max number of different atomic species (ntypx) = 10
     Max number of k-points (npk) =  40000
     Max angular momentum in pseudopotentials (lmaxx) =  3

     Subspace diagonalization in iterative solution of the eigenvalue problem:
     one sub-group per band group will be used

     Found symmetry operation: I + (  0.2500  0.0000  0.0000)
     This is a supercell, fractional translations are disabled

     Title:
      Ausurf

     bravais-lattice index     =            8
     lattice parameter (alat)  =      22.2988  a.u.
     unit-cell volume          =   51555.9485 (a.u.)^3
     number of atoms/cell      =          288
     number of atomic types    =            1
     number of electrons       =      3168.00
     number of Kohn-Sham states=         1901
     kinetic-energy cutoff     =      40.0000  Ry
     charge density cutoff     =     350.0000  Ry
     convergence threshold     =      1.0E-06
     mixing beta               =       0.7000
     number of iterations used =            8  TF        mixing
     Exchange-correlation=  SLA  PW   PBE  PBE
                           (   1   4   3   4   0   0   0)

     celldm(1)=  22.298768  celldm(2)=   1.732051  celldm(3)=   2.684575
     celldm(4)=   0.000000  celldm(5)=   0.000000  celldm(6)=   0.000000

     crystal axes: (cart. coord. in units of alat)
               a(1) = (   1.000000   0.000000   0.000000 )
               a(2) = (   0.000000   1.732051   0.000000 )
               a(3) = (   0.000000   0.000000   2.684575 )

     reciprocal axes: (cart. coord. in units 2 pi/alat)
               b(1) = (  1.000000  0.000000  0.000000 )
               b(2) = (  0.000000  0.577350  0.000000 )
               b(3) = (  0.000000  0.000000  0.372498 )

     PseudoPot. # 1 for Au read from file:
     /marconi/home/userexternal/czeni000/dft_src/pseudo/Au.pbe-nd-van.UPF
     MD5 check sum: deb5c07af10777505a79e28f5b4b4115
     Pseudo is Ultrasoft + core correction, Zval = 11.0
     Generated by new atomic code, or converted to UPF format
     Using radial grid of  985 points,  3 beta functions with:
                l(1) =   1
                l(2) =   2
                l(3) =   2
     Q(r) pseudized with  8 coefficients,  rinner =    1.100   1.100   1.100
                                                       1.100   1.100

     atomic species   valence    mass     pseudopotential
        Au            11.00   196.96000     Au( 1.00)

      2 Sym. Ops. (no inversion) found

   Cartesian axes

     site n.     atom                  positions (alat units)
         1           Au  tau(   1) = (   0.0000000   0.0000000   0.0000000  )
         2           Au  tau(   2) = (   0.2500000   0.0000000   0.0000000  )
         3           Au  tau(   3) = (   0.5000000   0.0000000   0.0000000  )
         4           Au  tau(   4) = (   0.0000000   0.4330127   0.0000000  )
         5           Au  tau(   5) = (   0.7500000   0.0000000   0.0000000  )
         6           Au  tau(   6) = (   0.2500000   0.4330127   0.0000000  )
         7           Au  tau(   7) = (   0.5000000   0.4330127   0.0000000  )
         8           Au  tau(   8) = (   0.0000000   0.8660254   0.0000000  )
         9           Au  tau(   9) = (   0.7500000   0.4330127   0.0000000  )
        10           Au  tau(  10) = (   0.2500000   0.8660254   0.0000000  )
        11           Au  tau(  11) = (   0.5000000   0.8660254   0.0000000  )
        12           Au  tau(  12) = (   0.0000000   1.2990381   0.0000000  )
        13           Au  tau(  13) = (   0.7500000   0.8660254   0.0000000  )
        14           Au  tau(  14) = (   0.2500000   1.2990381   0.0000000  )
        15           Au  tau(  15) = (   0.5000000   1.2990381   0.0000000  )
        16           Au  tau(  16) = (   0.7500000   1.2990381   0.0000000  )
        17           Au  tau(  17) = (   0.1250000   0.0721688   0.2041242  )
        18           Au  tau(  18) = (   0.3750000   0.0721688   0.2041242  )
        19           Au  tau(  19) = (   0.6250000   0.0721688   0.2041242  )
        20           Au  tau(  20) = (   0.1250000   0.5051815   0.2041242  )
        21           Au  tau(  21) = (   0.6250000   0.5051815   0.2041242  )
        22           Au  tau(  22) = (   0.8750000   0.0721688   0.2041242  )
        23           Au  tau(  23) = (   0.1250000   0.9381942   0.2041242  )
        24           Au  tau(  24) = (   0.3750000   0.5051815   0.2041242  )
        25           Au  tau(  25) = (   0.3750000   0.9381942   0.2041242  )
        26           Au  tau(  26) = (   0.8750000   0.5051815   0.2041242  )
        27           Au  tau(  27) = (   0.2500000   0.2886752   0.2041242  )
        28           Au  tau(  28) = (   0.2500000   0.7216878   0.2041242  )
        29           Au  tau(  29) = (   1.0000000   0.2886752   0.2041242  )
        30           Au  tau(  30) = (   0.3750000   1.3712069   0.2041242  )
        31           Au  tau(  31) = (   0.6250000   0.9381942   0.2041242  )
        32           Au  tau(  32) = (   0.5000000   0.2886752   0.2041242  )
        33           Au  tau(  33) = (   0.7500000   0.2886752   0.2041242  )
        34           Au  tau(  34) = (   0.1250000   1.3712069   0.2041242  )
        35           Au  tau(  35) = (   0.6250000   1.3712069   0.2041242  )
        36           Au  tau(  36) = (   0.8750000   0.9381942   0.2041242  )
        37           Au  tau(  37) = (   0.8750000   1.3712069   0.2041242  )
        38           Au  tau(  38) = (   0.5000000   0.7216878   0.2041242  )
        39           Au  tau(  39) = (   0.7500000   0.7216878   0.2041242  )
        40           Au  tau(  40) = (   0.7500000   1.1547005   0.2041242  )
        41           Au  tau(  41) = (   0.2500000   1.1547005   0.2041242  )
        42           Au  tau(  42) = (   0.5000000   1.1547005   0.2041242  )
        43           Au  tau(  43) = (   1.0000000   0.7216878   0.2041242  )
        44           Au  tau(  44) = (   0.2500000   1.5877132   0.2041242  )
        45           Au  tau(  45) = (   0.5000000   1.5877132   0.2041242  )
        46           Au  tau(  46) = (   1.0000000   1.1547005   0.2041242  )
        47           Au  tau(  47) = (   0.7500000   1.5877132   0.2041242  )
        48           Au  tau(  48) = (   1.0000000   1.5877132   0.2041242  )
        49           Au  tau(  49) = (   0.2500000   0.1443375   0.4082483  )
        50           Au  tau(  50) = (   0.6250000   0.3608439   0.4082483  )
        51           Au  tau(  51) = (   0.5000000   0.1443375   0.4082483  )
        52           Au  tau(  52) = (   0.7500000   0.1443375   0.4082483  )
        53           Au  tau(  53) = (   0.1250000   0.3608439   0.4082483  )
        54           Au  tau(  54) = (   0.3750000   0.3608439   0.4082483  )
        55           Au  tau(  55) = (   0.2500000   0.5773503   0.4082483  )
        56           Au  tau(  56) = (   0.5000000   0.5773503   0.4082483  )
        57           Au  tau(  57) = (   0.5000000   1.0103630   0.4082483  )
        58           Au  tau(  58) = (   0.5000000   1.4433757   0.4082483  )
        59           Au  tau(  59) = (   0.7500000   0.5773503   0.4082483  )
        60           Au  tau(  60) = (   1.0000000   0.1443375   0.4082483  )
[...]
       274           Au  tau( 274) = (   0.3750000   1.0825318   1.8371173  )
       275           Au  tau( 275) = (   0.6250000   0.6495191   1.8371173  )
       276           Au  tau( 276) = (   0.8750000   0.6495191   1.8371173  )
       277           Au  tau( 277) = (   0.1250000   0.2165064   1.8371173  )
       278           Au  tau( 278) = (   0.1250000   0.6495191   1.8371173  )
       279           Au  tau( 279) = (   0.1250000   1.5155445   1.8371173  )
       280           Au  tau( 280) = (   0.3750000   0.2165064   1.8371173  )
       281           Au  tau( 281) = (   0.3750000   0.6495191   1.8371173  )
       282           Au  tau( 282) = (   0.6250000   0.2165064   1.8371173  )
       283           Au  tau( 283) = (   0.6250000   1.0825318   1.8371173  )
       284           Au  tau( 284) = (   0.8750000   0.2165064   1.8371173  )
       285           Au  tau( 285) = (   0.8750000   1.0825318   1.8371173  )
       286           Au  tau( 286) = (   0.8750000   1.5155445   1.8371173  )
       287           Au  tau( 287) = (   0.3750000   1.5155445   1.8371173  )
       288           Au  tau( 288) = (   0.6250000   1.5155445   1.8371173  )

     number of k points=     6  Marzari-Vanderbilt smearing, width (Ry)=  0.0500
                       cart. coord. in units 2pi/alat
        k(    1) = (   0.0833333   0.0962250   0.0000000), wk =   0.4444444
        k(    2) = (   0.0833333  -0.2886751   0.0000000), wk =   0.2222222
        k(    3) = (   0.2500000   0.0962250   0.0000000), wk =   0.4444444
        k(    4) = (   0.2500000  -0.2886751   0.0000000), wk =   0.2222222
        k(    5) = (   0.4166667   0.0962250   0.0000000), wk =   0.4444444
        k(    6) = (   0.4166667  -0.2886751   0.0000000), wk =   0.2222222

     Initial potential from superposition of free atoms

     starting charge 3164.65577, renormalised to 3168.00000

     negative rho (up, down):  7.682E+00 0.000E+00
     Starting wfcs are 2592 randomized atomic wfcs

     Self-consistent Calculation

     iteration #  1     ecut=    40.00 Ry     beta= 0.70
     Davidson diagonalization with overlap
     ethr =  1.00E-02,  avg # of iterations =  3.0

     Threshold (ethr) on eigenvalues was too large:
     Diagonalizing with lowered threshold

     Davidson diagonalization with overlap
     ethr =  3.34E-04,  avg # of iterations =  4.3

     negative rho (up, down):  7.304E+00 0.000E+00

     total energy              =  -29385.07860971 Ry
     estimated scf accuracy    <      12.62398578 Ry

[...]

     iteration #  5     ecut=    40.00 Ry     beta= 0.70
     Davidson diagonalization with overlap
     c_bands:  1 eigenvalues not converged
     ethr =  5.10E-05,  avg # of iterations = 16.8

[...]

     iteration # 18     ecut=    40.00 Ry     beta= 0.70
     Davidson diagonalization with overlap
     c_bands:  1 eigenvalues not converged
     ethr =  6.17E-08,  avg # of iterations = 14.8

[...]

     total energy              =  -29385.42679086 Ry
     estimated scf accuracy    <       0.00000950 Ry

     iteration # 22     ecut=    40.00 Ry     beta= 0.70
     Davidson diagonalization with overlap
     ethr =  3.00E-10,  avg # of iterations =  2.2

[...]

     End of self-consistent calculation

          k = 0.0833 0.0962 0.0000 (220303 PWs)   bands (ev):

    -0.8130  -0.5140  -0.4713  -0.2263  -0.1779   0.0254   0.1020   0.2537
     0.3117   0.4900   0.5491   0.5640   0.5801   0.6014   0.6350   0.7195
     0.7832   0.8244   0.8362   0.8821   0.9223   0.9650   0.9951   1.0079
     1.0167   1.0909   1.1251   1.1388   1.2050   1.2159   1.2463   1.2568
     1.3386   1.3567   1.3853   1.4018   1.4434   1.4637   1.5057   1.5098
[...]
     2.2417   2.2441   2.2477   2.2734   2.2775   2.2806   2.2886   2.2906
     2.3019   2.3027   2.3045   2.3080   2.3086   2.3100   2.3147   2.3180
     2.3229   2.3253   2.3294   2.3337   2.3382   2.3404   2.3438   2.3449
     2.3494   2.3502   2.3580   2.3701   2.3764   2.3807   2.3810   2.3824
     2.3833   2.3915   2.3991   2.4063   2.4080   2.4115   2.4118   2.4122
     2.4166   2.4230   2.4262   2.4265   2.4282   2.4301   2.4365   2.4395
     2.4407   2.4494   2.4501   2.4515   2.4522   2.4562   2.4603   2.4685
     2.4743   2.4759   2.4766   2.4837   2.4838   2.4857   2.4887   2.4953
     2.5108   2.5135   2.5151   2.5245   2.5357   2.5375   2.5379   2.5430
     2.5462   2.5534   2.5556   2.5579   2.5647   2.5681   2.5687   2.5741
     2.5757   2.5800   2.5801   2.5812   2.5880   2.5905   2.5932   2.5944
     2.5981   2.5985   2.5986   2.6022   2.6140   2.6143   2.6169   2.6207
     2.6234   2.6351   2.6415   2.6540   2.6549   2.6591   2.6613   2.6637
     2.6672   2.6688   2.6700   2.6731   2.6805   2.6846   2.6932   2.6942
     2.6980   2.7013   2.7149   2.7166   2.7197   2.7199   2.7237   2.7267
     2.7340   2.7429   2.7450   2.7476   2.7590   2.7601   2.7689   2.7717
     2.7725   2.7757   2.7781   2.7809   2.7855   2.7906   2.7938   2.8061
     2.8065   2.8068   2.8071   2.8124   2.8125   2.8147   2.8193   2.8247
     2.8344   2.8371   2.8490   2.8508   2.8554   2.8555   2.8573   2.8595
     2.8600   2.8609   2.8754   2.8758   2.8986   2.9117   2.9196   2.9208
     2.9229   2.9294   2.9326   2.9373   2.9403   2.9479   2.9503   2.9564
     2.9567   2.9612   2.9794   2.9841   2.9975   3.0086   3.0112   3.0219
     3.0237   3.0439   3.0561   3.0565   3.0593   3.0675   3.0691   3.0694
     3.0726   3.0804   3.0814   3.0827   3.0834   3.0851   3.0933   3.1109
     3.1160   3.1171   3.1200   3.1221   3.1307   3.1331   3.1379   3.1400
     3.1428   3.1430   3.1479   3.1630   3.1674   3.1695   3.1761   3.1802
     3.1811   3.1909   3.1946   3.1965   3.1988   3.1992   3.2021   3.2088
     3.2089   3.2123   3.2139   3.2232   3.2249   3.2282   3.2318   3.2336
     3.2372   3.2453   3.2615   3.2629   3.2673   3.2743   3.2793   3.2817
     3.2842   3.2910   3.2926   3.2934   3.3002   3.3127   3.3166   3.3218
     3.3245   3.3245   3.3252   3.3263   3.3277   3.3291   3.3319   3.3333
     3.3366   3.3440   3.3475   3.3506   3.3539   3.3552   3.3606   3.3607
     3.3695   3.3732   3.3732   3.3758   3.3758   3.3778   3.3791   3.3817
     3.4049   3.4061   3.4067   3.4096   3.4138   3.4166   3.4213   3.4219
     3.4277   3.4347   3.4388   3.4389   3.4423   3.4478   3.4484   3.4495
     3.4593   3.4631   3.4633   3.4643   3.4732   3.4748   3.4757   3.4759
     3.4789   3.4824   3.4860   3.4871   3.4962   3.4974   3.5022   3.5062
     3.5090   3.5120   3.5150   3.5151   3.5186   3.5267   3.5319   3.5333
     3.5359   3.5382   3.5389   3.5436   3.5480   3.5537   3.5579   3.5628
     3.5670   3.5689   3.5709   3.5762   3.5764   3.5801   3.5856   3.5868
     3.5908   3.5920   3.5935   3.5971   3.5982   3.6016   3.6018   3.6018
     3.6075   3.6089   3.6210   3.6211   3.6244   3.6246   3.6252   3.6259
     3.6263   3.6297   3.6325   3.6447   3.6468   3.6480   3.6481   3.6594
     3.6620   3.6791   3.6846   3.6907   3.6923   3.6933   3.6961   3.6978
     3.7044   3.7092   3.7116   3.7151   3.7189   3.7201   3.7209   3.7304
[...]
    12.6451  12.6534  12.7047  12.7299  12.7414  12.7435  12.7651  12.7790
    12.7901  12.8215  12.8467  12.8497  12.8734  12.8748  12.8884  12.8935
    12.9050  12.9364  13.0226  13.0226  13.0522  13.0723  13.0811  13.0937
    13.0962  13.1006  13.1579  13.1679  13.1796  13.2046  13.2152  13.2278
    13.2445  13.2494  13.2598  13.2840  13.2843  13.2952  13.3196  13.3234
    13.3387  13.3791  13.3836  13.4405  13.4464  13.4623  13.4632  13.4640
    13.4680  13.4686  13.4718  13.4916  13.5042  13.5235  13.5275  13.5778
    13.6556  13.6623  13.6762  13.6823  13.6884  13.7254  13.7601  13.7660
    13.8099  13.8183  13.8226  13.8264  13.8358  13.8433  13.8830  13.8852
    13.8900  13.8961  13.9144  13.9334  13.9337  13.9392  13.9526  13.9578
    13.9605  13.9951  13.9964  14.0020  14.0079  14.0280  14.0492  14.0698
    14.0905  14.1012  14.1118  14.1280  14.1448  14.1633  14.1706  14.1717
    14.2009  14.2039  14.2311  14.2434  14.2712  14.2789  14.2823  14.3238
    14.3393  14.3712  14.3738  14.4019  14.4036  14.4103  14.4231  14.4232
    14.4282  14.5057  14.5483  14.5555  14.5575

[...]

          k = 0.4167-0.2887 0.0000 (220176 PWs)   bands (ev):

    -0.4895  -0.4895  -0.2733  -0.2733  -0.1537  -0.1537   0.0569   0.0569
     0.3357   0.3357   0.3411   0.3411   0.5325   0.5325   0.5387   0.5387
     0.6459   0.6459   0.8261   0.8261   0.9069   0.9069   1.0889   1.0889
     1.1032   1.1032   1.2518   1.2518   1.4282   1.4282   1.4452   1.4452
     1.5139   1.5139   1.5162   1.5162   1.5722   1.5722   1.6071   1.6071
     1.6202   1.6202   1.6547   1.6547   1.7083   1.7083   1.7305   1.7305
     1.7332   1.7332   1.7476   1.7476   1.7531   1.7531   1.7533   1.7533
     1.7897   1.7897   1.8178   1.8178   1.8301   1.8301   1.8358   1.8358
     1.8508   1.8508   1.8919   1.8919   1.9077   1.9077   1.9130   1.9130
     1.9172   1.9172   1.9448   1.9448   1.9504   1.9504   1.9601   1.9601
     1.9604   1.9604   1.9789   1.9789   2.0071   2.0071   2.0175   2.0175
     2.0272   2.0272   2.0293   2.0293   2.0368   2.0368   2.0431   2.0431
     2.0714   2.0714   2.0770   2.0770   2.0826   2.0826   2.1040   2.1040
     2.1151   2.1151   2.1292   2.1292   2.1316   2.1316   2.1382   2.1382
     2.1447   2.1447   2.1527   2.1527   2.1892   2.1892   2.1956   2.1956
     2.2042   2.2042   2.2214   2.2214   2.2326   2.2326   2.2402   2.2402
     2.2548   2.2548   2.2721   2.2721   2.2912   2.2912   2.2933   2.2933
     2.3009   2.3009   2.3039   2.3039   2.3164   2.3164   2.3278   2.3278
     2.3474   2.3474   2.3508   2.3508   2.3572   2.3572   2.3572   2.3572
     2.3715   2.3715   2.3868   2.3868   2.3922   2.3922   2.4181   2.4181
     2.4340   2.4340   2.4352   2.4352   2.4374   2.4374   2.4380   2.4380
     2.4432   2.4432   2.4509   2.4509   2.4562   2.4562   2.4608   2.4608
     2.4619   2.4619   2.4652   2.4652   2.4712   2.4712   2.4810   2.4810
     2.4841   2.4841   2.4882   2.4882   2.5105   2.5105   2.5194   2.5194
     2.5224   2.5224   2.5238   2.5238   2.5381   2.5381   2.5406   2.5406
     2.5660   2.5660   2.5684   2.5684   2.5702   2.5702   2.5775   2.5775
     2.5876   2.5876   2.5889   2.5889   2.5990   2.5990   2.6021   2.6022
     2.6042   2.6042   2.6062   2.6062   2.6116   2.6116   2.6251   2.6251
     2.6369   2.6369   2.6463   2.6463   2.6512   2.6512   2.6555   2.6555
     2.6853   2.6853   2.6880   2.6880   2.6882   2.6882   2.7007   2.7007
     2.7051   2.7051   2.7074   2.7074   2.7142   2.7142   2.7507   2.7507
     2.7793   2.7793   2.7847   2.7847   2.7883   2.7883   2.7937   2.7937
     2.7947   2.7947   2.8136   2.8136   2.8160   2.8160   2.8170   2.8170
     2.8212   2.8212   2.8251   2.8251   2.8262   2.8262   2.8306   2.8306
     2.8355   2.8355   2.8464   2.8464   2.8616   2.8616   2.8669   2.8669
     2.8765   2.8765   2.8945   2.8945   2.9014   2.9014   2.9314   2.9314
     2.9346   2.9346   2.9366   2.9366   2.9513   2.9513   2.9851   2.9851
     2.9877   2.9877   2.9982   2.9982   3.0068   3.0068   3.0256   3.0256
     3.0534   3.0534   3.0585   3.0585   3.0790   3.0790   3.0860   3.0860
     3.0896   3.0896   3.1068   3.1068   3.1080   3.1080   3.1082   3.1082
     3.1118   3.1118   3.1252   3.1252   3.1387   3.1387   3.1636   3.1636
     3.1647   3.1647   3.1700   3.1700   3.1793   3.1793   3.1812   3.1812
     3.1956   3.1956   3.2037   3.2037   3.2288   3.2288   3.2319   3.2319
     3.2440   3.2440   3.2607   3.2607   3.2648   3.2648   3.2684   3.2684
     3.2731   3.2731   3.2904   3.2904   3.2935   3.2935   3.3121   3.3121
     3.3153   3.3153   3.3237   3.3237   3.3383   3.3383   3.3392   3.3392
     3.3443   3.3443   3.3450   3.3450   3.3703   3.3703   3.3704   3.3704
     3.3711   3.3711   3.3848   3.3848   3.3871   3.3871   3.3901   3.3901
     3.4124   3.4124   3.4220   3.4220   3.4265   3.4265   3.4276   3.4276
     3.4378   3.4378   3.4384   3.4384   3.4392   3.4392   3.4497   3.4497
     3.4527   3.4527   3.4559   3.4559   3.4610   3.4610   3.4616   3.4616
     3.4669   3.4669   3.4900   3.4900   3.4901   3.4901   3.4950   3.4950
     3.5051   3.5051   3.5056   3.5056   3.5106   3.5106   3.5119   3.5119
     3.5387   3.5387   3.5392   3.5392   3.5478   3.5478   3.5590   3.5590
     3.5596   3.5596   3.5630   3.5630   3.5668   3.5668   3.5836   3.5836
     3.5911   3.5911   3.6048   3.6048   3.6178   3.6178   3.6259   3.6259
     3.6276   3.6276   3.6359   3.6359   3.6484   3.6484   3.6491   3.6491
     3.6587   3.6587   3.6622   3.6622   3.6767   3.6767   3.6832   3.6832
     3.6881   3.6881   3.6889   3.6889   3.6930   3.6930   3.6976   3.6976
     3.7070   3.7070   3.7237   3.7237   3.7276   3.7276   3.7305   3.7305
[...]
    12.4973  12.4973  12.6151  12.6151  12.6159  12.6159  12.6324  12.6324
    12.6410  12.6410  12.8162  12.8162  12.8850  12.8850  12.9058  12.9058
    12.9277  12.9277  12.9942  12.9942  12.9988  12.9988  13.0108  13.0108
    13.0533  13.0533  13.0566  13.0566  13.1153  13.1153  13.1443  13.1443
    13.1585  13.1585  13.1746  13.1746  13.3114  13.3114  13.3803  13.3803
    13.4025  13.4025  13.4296  13.4296  13.4738  13.4738  13.5266  13.5266
    13.5617  13.5617  13.5765  13.5765  13.5950  13.5950  13.6175  13.6175
    13.6317  13.6317  13.6661  13.6661  13.7331  13.7331  13.7716  13.7716
    13.7753  13.7753  13.7869  13.7869  13.8454  13.8454  13.9137  13.9137
    13.9241  13.9241  13.9328  13.9328  13.9661  13.9661  13.9702  13.9702
    14.0724  14.0724  14.1196  14.1196  14.1859  14.1859  14.2078  14.2078
    14.2747  14.2750  14.2857  14.2857  14.2858  14.2858  14.2919  14.2919
    14.2947  14.2947  14.2969  14.2969  14.3065  14.3065  14.3945  14.3951
    14.4466  14.4467  14.4481  14.4481  14.4612  14.4612  14.4931  14.4931
    14.5859  14.5859  14.6421  14.6511  14.6511

     the Fermi energy is     8.2690 ev

!    total energy              =  -29385.42679259 Ry
     estimated scf accuracy    <       0.00000019 Ry
     smearing contrib. (-TS)   =       0.37937797 Ry
     internal energy E=F+TS    =  -29385.80617056 Ry

     The total energy is F=E-TS. E is the sum of the following terms:
     one-electron contribution = -135597.13151678 Ry
     hartree contribution      =   70793.63073733 Ry
     xc contribution           =  -14204.03345966 Ry
     ewald contribution        =   49621.72806855 Ry

     convergence has been achieved in  22 iterations

     negative rho (up, down):  7.835E+00 0.000E+00

     Forces acting on atoms (cartesian axes, Ry/au):

     atom    1 type  1   force =     0.00000000   -0.00165257    0.02671846
     atom    2 type  1   force =    -0.00000206   -0.00165242    0.02671575
     atom    3 type  1   force =     0.00000000   -0.00165409    0.02671597
     atom    4 type  1   force =     0.00000000   -0.00165265    0.02671808
     atom    5 type  1   force =     0.00000206   -0.00165242    0.02671575
     atom    6 type  1   force =    -0.00000222   -0.00165237    0.02671590
     atom    7 type  1   force =     0.00000000   -0.00165413    0.02671573
     atom    8 type  1   force =     0.00000000   -0.00165271    0.02671816
     atom    9 type  1   force =     0.00000222   -0.00165237    0.02671590
     atom   10 type  1   force =    -0.00000203   -0.00165250    0.02671620
     atom   11 type  1   force =     0.00000000   -0.00165395    0.02671568
     atom   12 type  1   force =     0.00000000   -0.00165252    0.02671843
     atom   13 type  1   force =     0.00000203   -0.00165250    0.02671620
     atom   14 type  1   force =    -0.00000232   -0.00165222    0.02671598
     atom   15 type  1   force =     0.00000000   -0.00165391    0.02671618
     atom   16 type  1   force =     0.00000232   -0.00165222    0.02671598
     atom   17 type  1   force =    -0.00000241    0.00336729   -0.01658040
     atom   18 type  1   force =    -0.00000246    0.00336647   -0.01658005
     atom   19 type  1   force =     0.00000246    0.00336647   -0.01658005
     atom   20 type  1   force =    -0.00000241    0.00336710   -0.01658048
     atom   21 type  1   force =     0.00000244    0.00336623   -0.01658008
     atom   22 type  1   force =     0.00000241    0.00336729   -0.01658040
     atom   23 type  1   force =    -0.00000235    0.00336721   -0.01658019
     atom   24 type  1   force =    -0.00000244    0.00336623   -0.01658008
     atom   25 type  1   force =    -0.00000258    0.00336633   -0.01657999
     atom   26 type  1   force =     0.00000241    0.00336710   -0.01658048
     atom   27 type  1   force =    -0.00000220   -0.00160965   -0.00967687
     atom   28 type  1   force =    -0.00000215   -0.00160963   -0.00967674
     atom   29 type  1   force =     0.00000000   -0.00160974   -0.00967533
     atom   30 type  1   force =    -0.00000241    0.00336647   -0.01658000
     atom   31 type  1   force =     0.00000258    0.00336633   -0.01657999
     atom   32 type  1   force =     0.00000000   -0.00160970   -0.00967854
     atom   33 type  1   force =     0.00000220   -0.00160965   -0.00967687
     atom   34 type  1   force =    -0.00000243    0.00336733   -0.01658011
     atom   35 type  1   force =     0.00000241    0.00336647   -0.01658000
     atom   36 type  1   force =     0.00000235    0.00336721   -0.01658019
     atom   37 type  1   force =     0.00000243    0.00336733   -0.01658011
     atom   38 type  1   force =     0.00000000   -0.00160960   -0.00967853
     atom   39 type  1   force =     0.00000215   -0.00160963   -0.00967674
     atom   40 type  1   force =     0.00000222   -0.00160964   -0.00967662
     atom   41 type  1   force =    -0.00000222   -0.00160964   -0.00967662
     atom   42 type  1   force =     0.00000000   -0.00160975   -0.00967836
     atom   43 type  1   force =     0.00000000   -0.00160974   -0.00967535
     atom   44 type  1   force =    -0.00000217   -0.00160956   -0.00967668
     atom   45 type  1   force =     0.00000000   -0.00160960   -0.00967874
     atom   46 type  1   force =     0.00000000   -0.00160983   -0.00967514
     atom   47 type  1   force =     0.00000217   -0.00160956   -0.00967668
     atom   48 type  1   force =     0.00000000   -0.00160968   -0.00967526
     atom   49 type  1   force =    -0.00000215    0.00056219   -0.00390311
     atom   50 type  1   force =     0.00000178   -0.00053449    0.00451702
     atom   51 type  1   force =     0.00000000    0.00056185   -0.00390338
     atom   52 type  1   force =     0.00000215    0.00056219   -0.00390311
     atom   53 type  1   force =    -0.00000189   -0.00053448    0.00451816
     atom   54 type  1   force =    -0.00000178   -0.00053449    0.00451702
     atom   55 type  1   force =    -0.00000221    0.00056204   -0.00390304
     atom   56 type  1   force =     0.00000000    0.00056175   -0.00390324
     atom   57 type  1   force =     0.00000000    0.00056172   -0.00390323
     atom   58 type  1   force =     0.00000000    0.00056183   -0.00390330
     atom   59 type  1   force =     0.00000221    0.00056204   -0.00390304
     atom   60 type  1   force =     0.00000000    0.00056245   -0.00390160
[...]
     atom  274 type  1   force =     0.00000133    0.00164849   -0.02670523
     atom  275 type  1   force =    -0.00000118    0.00164844   -0.02670486
     atom  276 type  1   force =     0.00000032    0.00165087   -0.02670169
     atom  277 type  1   force =    -0.00000017    0.00165085   -0.02670192
     atom  278 type  1   force =    -0.00000032    0.00165087   -0.02670169
     atom  279 type  1   force =    -0.00000023    0.00165092   -0.02670181
     atom  280 type  1   force =     0.00000121    0.00164871   -0.02670512
     atom  281 type  1   force =     0.00000118    0.00164844   -0.02670486
     atom  282 type  1   force =    -0.00000121    0.00164871   -0.02670512
     atom  283 type  1   force =    -0.00000133    0.00164849   -0.02670523
     atom  284 type  1   force =     0.00000017    0.00165085   -0.02670192
     atom  285 type  1   force =     0.00000013    0.00165066   -0.02670189
     atom  286 type  1   force =     0.00000023    0.00165092   -0.02670181
     atom  287 type  1   force =     0.00000116    0.00164859   -0.02670497
     atom  288 type  1   force =    -0.00000116    0.00164859   -0.02670497

     Total force =     0.190702     Total SCF correction =     0.001562

     General routines

     Parallel routines

   This run was terminated on:   6:10:42  17Sep2021

   JOB DONE.