     Program PWSCF v.6.6 starts on 24Sep2021 at 22:17:48

     K-points division:     npool     =       2
     R & G space division:  proc/nbgrp/npool/nimage =       6
     Fft bands division:     nmany     =       1
     Reading input from ../inputs/input_ausurf_288

     Current dimensions of program PWSCF are:
     Max number of different atomic species (ntypx) = 10
     Max number of k-points (npk) =  40000
     Max angular momentum in pseudopotentials (lmaxx) =  3

     Subspace diagonalization in iterative solution of the eigenvalue problem:
     one sub-group per band group will be used

     Found symmetry operation: I + (  0.2500  0.0000  0.0000)
     This is a supercell, fractional translations are disabled

     Title:
      Ausurf

     bravais-lattice index     =            8
     lattice parameter (alat)  =      22.2988  a.u.
     unit-cell volume          =   51555.9485 (a.u.)^3
     number of atoms/cell      =          288
     number of atomic types    =            1
     number of electrons       =      3168.00
     number of Kohn-Sham states=         1901
     kinetic-energy cutoff     =      40.0000  Ry
     charge density cutoff     =     350.0000  Ry
     convergence threshold     =      1.0E-06
     mixing beta               =       0.7000
     number of iterations used =            8  TF        mixing
     Exchange-correlation=  SLA  PW   PBE  PBE
                           (   1   4   3   4   0   0   0)

     celldm(1)=  22.298768  celldm(2)=   1.732051  celldm(3)=   2.684575
     celldm(4)=   0.000000  celldm(5)=   0.000000  celldm(6)=   0.000000

     crystal axes: (cart. coord. in units of alat)
               a(1) = (   1.000000   0.000000   0.000000 )
               a(2) = (   0.000000   1.732051   0.000000 )
               a(3) = (   0.000000   0.000000   2.684575 )

     reciprocal axes: (cart. coord. in units 2 pi/alat)
               b(1) = (  1.000000  0.000000  0.000000 )
               b(2) = (  0.000000  0.577350  0.000000 )
               b(3) = (  0.000000  0.000000  0.372498 )

     PseudoPot. # 1 for Au read from file:
     /marconi/home/userexternal/czeni000/dft_src/pseudo/Au.pbe-nd-van.UPF
     MD5 check sum: deb5c07af10777505a79e28f5b4b4115
     Pseudo is Ultrasoft + core correction, Zval = 11.0
     Generated by new atomic code, or converted to UPF format
     Using radial grid of  985 points,  3 beta functions with:
                l(1) =   1
                l(2) =   2
                l(3) =   2
     Q(r) pseudized with  8 coefficients,  rinner =    1.100   1.100   1.100
                                                       1.100   1.100

     atomic species   valence    mass     pseudopotential
        Au            11.00   196.96000     Au( 1.00)

      2 Sym. Ops. (no inversion) found

   Cartesian axes

     site n.     atom                  positions (alat units)
         1           Au  tau(   1) = (   0.0000000   0.0000000   0.0000000  )
         2           Au  tau(   2) = (   0.2500000   0.0000000   0.0000000  )
         3           Au  tau(   3) = (   0.5000000   0.0000000   0.0000000  )
         4           Au  tau(   4) = (   0.0000000   0.4330127   0.0000000  )
         5           Au  tau(   5) = (   0.7500000   0.0000000   0.0000000  )
         6           Au  tau(   6) = (   0.2500000   0.4330127   0.0000000  )
         7           Au  tau(   7) = (   0.5000000   0.4330127   0.0000000  )
         8           Au  tau(   8) = (   0.0000000   0.8660254   0.0000000  )
         9           Au  tau(   9) = (   0.7500000   0.4330127   0.0000000  )
        10           Au  tau(  10) = (   0.2500000   0.8660254   0.0000000  )
        11           Au  tau(  11) = (   0.5000000   0.8660254   0.0000000  )
        12           Au  tau(  12) = (   0.0000000   1.2990381   0.0000000  )
        13           Au  tau(  13) = (   0.7500000   0.8660254   0.0000000  )
        14           Au  tau(  14) = (   0.2500000   1.2990381   0.0000000  )
        15           Au  tau(  15) = (   0.5000000   1.2990381   0.0000000  )
        16           Au  tau(  16) = (   0.7500000   1.2990381   0.0000000  )
        17           Au  tau(  17) = (   0.1250000   0.0721688   0.2041242  )
        18           Au  tau(  18) = (   0.3750000   0.0721688   0.2041242  )
        19           Au  tau(  19) = (   0.6250000   0.0721688   0.2041242  )
        20           Au  tau(  20) = (   0.1250000   0.5051815   0.2041242  )
        21           Au  tau(  21) = (   0.6250000   0.5051815   0.2041242  )
        22           Au  tau(  22) = (   0.8750000   0.0721688   0.2041242  )
        23           Au  tau(  23) = (   0.1250000   0.9381942   0.2041242  )
        24           Au  tau(  24) = (   0.3750000   0.5051815   0.2041242  )
        25           Au  tau(  25) = (   0.3750000   0.9381942   0.2041242  )
        26           Au  tau(  26) = (   0.8750000   0.5051815   0.2041242  )
        27           Au  tau(  27) = (   0.2500000   0.2886752   0.2041242  )
        28           Au  tau(  28) = (   0.2500000   0.7216878   0.2041242  )
        29           Au  tau(  29) = (   1.0000000   0.2886752   0.2041242  )
        30           Au  tau(  30) = (   0.3750000   1.3712069   0.2041242  )
        31           Au  tau(  31) = (   0.6250000   0.9381942   0.2041242  )
        32           Au  tau(  32) = (   0.5000000   0.2886752   0.2041242  )
        33           Au  tau(  33) = (   0.7500000   0.2886752   0.2041242  )
        34           Au  tau(  34) = (   0.1250000   1.3712069   0.2041242  )
        35           Au  tau(  35) = (   0.6250000   1.3712069   0.2041242  )
        36           Au  tau(  36) = (   0.8750000   0.9381942   0.2041242  )
        37           Au  tau(  37) = (   0.8750000   1.3712069   0.2041242  )
        38           Au  tau(  38) = (   0.5000000   0.7216878   0.2041242  )
        39           Au  tau(  39) = (   0.7500000   0.7216878   0.2041242  )
        40           Au  tau(  40) = (   0.7500000   1.1547005   0.2041242  )
        41           Au  tau(  41) = (   0.2500000   1.1547005   0.2041242  )
        42           Au  tau(  42) = (   0.5000000   1.1547005   0.2041242  )
        43           Au  tau(  43) = (   1.0000000   0.7216878   0.2041242  )
        44           Au  tau(  44) = (   0.2500000   1.5877132   0.2041242  )
        45           Au  tau(  45) = (   0.5000000   1.5877132   0.2041242  )
        46           Au  tau(  46) = (   1.0000000   1.1547005   0.2041242  )
        47           Au  tau(  47) = (   0.7500000   1.5877132   0.2041242  )
        48           Au  tau(  48) = (   1.0000000   1.5877132   0.2041242  )
        49           Au  tau(  49) = (   0.2500000   0.1443375   0.4082483  )
        50           Au  tau(  50) = (   0.6250000   0.3608439   0.4082483  )
        51           Au  tau(  51) = (   0.5000000   0.1443375   0.4082483  )
        52           Au  tau(  52) = (   0.7500000   0.1443375   0.4082483  )
        53           Au  tau(  53) = (   0.1250000   0.3608439   0.4082483  )
        54           Au  tau(  54) = (   0.3750000   0.3608439   0.4082483  )
        55           Au  tau(  55) = (   0.2500000   0.5773503   0.4082483  )
        56           Au  tau(  56) = (   0.5000000   0.5773503   0.4082483  )
        57           Au  tau(  57) = (   0.5000000   1.0103630   0.4082483  )
        58           Au  tau(  58) = (   0.5000000   1.4433757   0.4082483  )
        59           Au  tau(  59) = (   0.7500000   0.5773503   0.4082483  )
        60           Au  tau(  60) = (   1.0000000   0.1443375   0.4082483  )
[...]
       274           Au  tau( 274) = (   0.3750000   1.0825318   1.8371173  )
       275           Au  tau( 275) = (   0.6250000   0.6495191   1.8371173  )
       276           Au  tau( 276) = (   0.8750000   0.6495191   1.8371173  )
       277           Au  tau( 277) = (   0.1250000   0.2165064   1.8371173  )
       278           Au  tau( 278) = (   0.1250000   0.6495191   1.8371173  )
       279           Au  tau( 279) = (   0.1250000   1.5155445   1.8371173  )
       280           Au  tau( 280) = (   0.3750000   0.2165064   1.8371173  )
       281           Au  tau( 281) = (   0.3750000   0.6495191   1.8371173  )
       282           Au  tau( 282) = (   0.6250000   0.2165064   1.8371173  )
       283           Au  tau( 283) = (   0.6250000   1.0825318   1.8371173  )
       284           Au  tau( 284) = (   0.8750000   0.2165064   1.8371173  )
       285           Au  tau( 285) = (   0.8750000   1.0825318   1.8371173  )
       286           Au  tau( 286) = (   0.8750000   1.5155445   1.8371173  )
       287           Au  tau( 287) = (   0.3750000   1.5155445   1.8371173  )
       288           Au  tau( 288) = (   0.6250000   1.5155445   1.8371173  )

     number of k points=     6  Marzari-Vanderbilt smearing, width (Ry)=  0.0500
                       cart. coord. in units 2pi/alat
        k(    1) = (   0.0833333   0.0962250   0.0000000), wk =   0.4444444
        k(    2) = (   0.0833333  -0.2886751   0.0000000), wk =   0.2222222
        k(    3) = (   0.2500000   0.0962250   0.0000000), wk =   0.4444444
        k(    4) = (   0.2500000  -0.2886751   0.0000000), wk =   0.2222222
        k(    5) = (   0.4166667   0.0962250   0.0000000), wk =   0.4444444
        k(    6) = (   0.4166667  -0.2886751   0.0000000), wk =   0.2222222

     Initial potential from superposition of free atoms

     starting charge 3164.65577, renormalised to 3168.00000

     negative rho (up, down):  7.682E+00 0.000E+00
     Starting wfcs are 2592 randomized atomic wfcs

     Self-consistent Calculation

     iteration #  1     ecut=    40.00 Ry     beta= 0.70
     Davidson diagonalization with overlap
     ethr =  1.00E-02,  avg # of iterations =  3.0

     Threshold (ethr) on eigenvalues was too large:
     Diagonalizing with lowered threshold

     Davidson diagonalization with overlap
     ethr =  3.34E-04,  avg # of iterations =  4.2

     negative rho (up, down):  7.304E+00 0.000E+00

     total energy              =  -29385.07920338 Ry
     estimated scf accuracy    <      12.62262399 Ry

[...]

     iteration # 21     ecut=    40.00 Ry     beta= 0.70
     Davidson diagonalization with overlap
     c_bands:  1 eigenvalues not converged
     ethr =  1.60E-07,  avg # of iterations = 13.3

[...]

     total energy              =  -29385.42679267 Ry
     estimated scf accuracy    <       0.00000200 Ry

     iteration # 27     ecut=    40.00 Ry     beta= 0.70
     Davidson diagonalization with overlap
     ethr =  4.86E-11,  avg # of iterations =  2.0

[...]

     End of self-consistent calculation

          k = 0.0833 0.0962 0.0000 (220303 PWs)   bands (ev):

    -0.8128  -0.5138  -0.4712  -0.2261  -0.1777   0.0256   0.1021   0.2539
     0.3119   0.4902   0.5493   0.5642   0.5803   0.6016   0.6352   0.7197
     0.7834   0.8246   0.8364   0.8823   0.9225   0.9652   0.9953   1.0081
     1.0169   1.0911   1.1253   1.1390   1.2052   1.2161   1.2465   1.2570
     1.3388   1.3569   1.3855   1.4020   1.4436   1.4639   1.5059   1.5100
     1.5528   1.5575   1.5651   1.5685   1.5734   1.5836   1.5913   1.6037
     1.6144   1.6196   1.6434   1.6940   1.7093   1.7230   1.7262   1.7271
[...]
     2.2419   2.2443   2.2479   2.2736   2.2777   2.2808   2.2888   2.2908
     2.3021   2.3029   2.3047   2.3082   2.3088   2.3102   2.3149   2.3182
     2.3231   2.3255   2.3296   2.3339   2.3384   2.3406   2.3440   2.3451
     2.3496   2.3504   2.3582   2.3703   2.3767   2.3809   2.3812   2.3826
     2.3835   2.3917   2.3993   2.4065   2.4082   2.4117   2.4120   2.4124
     2.4168   2.4232   2.4264   2.4267   2.4284   2.4303   2.4367   2.4397
     2.4409   2.4496   2.4503   2.4517   2.4524   2.4564   2.4605   2.4687
     2.4745   2.4761   2.4768   2.4839   2.4840   2.4859   2.4889   2.4955
     2.5110   2.5137   2.5153   2.5247   2.5359   2.5377   2.5381   2.5432
     2.5464   2.5536   2.5558   2.5581   2.5649   2.5683   2.5689   2.5743
     2.5759   2.5802   2.5803   2.5814   2.5882   2.5907   2.5934   2.5946
     2.5983   2.5987   2.5988   2.6024   2.6142   2.6145   2.6171   2.6209
     2.6236   2.6353   2.6417   2.6542   2.6551   2.6593   2.6616   2.6639
     2.6674   2.6690   2.6702   2.6733   2.6807   2.6848   2.6934   2.6944
     2.6982   2.7015   2.7151   2.7168   2.7199   2.7201   2.7239   2.7269
     2.7342   2.7431   2.7452   2.7478   2.7592   2.7603   2.7691   2.7720
     2.7727   2.7759   2.7783   2.7811   2.7857   2.7908   2.7940   2.8063
     2.8068   2.8070   2.8073   2.8126   2.8127   2.8149   2.8195   2.8249
     2.8346   2.8373   2.8492   2.8510   2.8556   2.8557   2.8575   2.8597
     2.8602   2.8611   2.8756   2.8760   2.8988   2.9119   2.9198   2.9210
     2.9231   2.9296   2.9328   2.9375   2.9405   2.9481   2.9505   2.9566
     2.9570   2.9614   2.9796   2.9843   2.9977   3.0088   3.0114   3.0221
     3.0239   3.0441   3.0563   3.0567   3.0595   3.0677   3.0693   3.0696
     3.0728   3.0806   3.0816   3.0829   3.0836   3.0853   3.0935   3.1111
     3.1162   3.1173   3.1202   3.1223   3.1309   3.1333   3.1381   3.1402
     3.1430   3.1432   3.1481   3.1632   3.1676   3.1697   3.1763   3.1804
     3.1813   3.1911   3.1948   3.1967   3.1990   3.1994   3.2023   3.2090
     3.2091   3.2125   3.2141   3.2235   3.2251   3.2284   3.2320   3.2338
     3.2374   3.2455   3.2617   3.2631   3.2676   3.2746   3.2796   3.2819
     3.2844   3.2912   3.2928   3.2936   3.3004   3.3130   3.3168   3.3220
     3.3247   3.3247   3.3255   3.3265   3.3279   3.3293   3.3321   3.3336
     3.3368   3.3442   3.3477   3.3508   3.3542   3.3554   3.3608   3.3609
     3.3697   3.3734   3.3734   3.3760   3.3760   3.3780   3.3794   3.3819
     3.4051   3.4063   3.4069   3.4098   3.4140   3.4168   3.4215   3.4221
     3.4279   3.4349   3.4390   3.4391   3.4425   3.4480   3.4486   3.4497
     3.4595   3.4633   3.4635   3.4645   3.4734   3.4750   3.4759   3.4761
     3.4791   3.4826   3.4862   3.4873   3.4964   3.4976   3.5024   3.5064
     3.5092   3.5122   3.5152   3.5153   3.5188   3.5269   3.5322   3.5336
     3.5361   3.5384   3.5391   3.5439   3.5482   3.5539   3.5581   3.5631
     3.5672   3.5691   3.5711   3.5765   3.5766   3.5803   3.5858   3.5870
     3.5910   3.5922   3.5937   3.5974   3.5985   3.6018   3.6020   3.6021
     3.6077   3.6091   3.6212   3.6213   3.6246   3.6249   3.6254   3.6261
     3.6265   3.6300   3.6327   3.6449   3.6471   3.6482   3.6484   3.6597
     3.6622   3.6793   3.6848   3.6909   3.6925   3.6935   3.6963   3.6980
     3.7046   3.7094   3.7118   3.7153   3.7191   3.7203   3.7211   3.7306
[...]
    12.6453  12.6536  12.7049  12.7302  12.7416  12.7438  12.7653  12.7792
    12.7938  12.8231  12.8469  12.8499  12.8736  12.8750  12.8886  12.8938
    12.9052  12.9370  13.0229  13.0229  13.0526  13.0741  13.0815  13.0939
    13.0963  13.1008  13.1583  13.1681  13.1799  13.2071  13.2156  13.2284
    13.2450  13.2498  13.2604  13.2842  13.2845  13.2958  13.3198  13.3237
    13.3390  13.3793  13.3838  13.4408  13.4466  13.4634  13.4634  13.4642
    13.4690  13.4701  13.4722  13.4919  13.5047  13.5237  13.5281  13.5782
    13.6558  13.6625  13.6764  13.6830  13.6886  13.7256  13.7606  13.7663
    13.8106  13.8207  13.8228  13.8266  13.8361  13.8437  13.8833  13.8874
    13.8910  13.8963  13.9147  13.9337  13.9340  13.9395  13.9528  13.9584
    13.9615  13.9953  13.9999  14.0044  14.0081  14.0300  14.0497  14.0701
    14.0906  14.1018  14.1120  14.1287  14.1453  14.1646  14.1708  14.1719
    14.2011  14.2055  14.2314  14.2437  14.2721  14.2791  14.2825  14.3253
    14.3396  14.3740  14.3745  14.4027  14.4041  14.4106  14.4231  14.4235
    14.4296  14.5061  14.5576  14.5612  14.6022

[...]

          k = 0.4167-0.2887 0.0000 (220176 PWs)   bands (ev):

    -0.4893  -0.4893  -0.2731  -0.2731  -0.1535  -0.1535   0.0571   0.0571
     0.3359   0.3359   0.3413   0.3413   0.5327   0.5327   0.5389   0.5389
     0.6461   0.6461   0.8263   0.8263   0.9071   0.9071   1.0891   1.0891
     1.1034   1.1034   1.2520   1.2520   1.4284   1.4284   1.4454   1.4454
     1.5142   1.5142   1.5164   1.5164   1.5724   1.5724   1.6073   1.6073
     1.6204   1.6204   1.6549   1.6549   1.7086   1.7086   1.7307   1.7307
     1.7334   1.7334   1.7478   1.7478   1.7533   1.7533   1.7535   1.7535
     1.7899   1.7899   1.8180   1.8180   1.8303   1.8303   1.8360   1.8360
     1.8510   1.8510   1.8921   1.8921   1.9080   1.9080   1.9132   1.9132
     1.9174   1.9174   1.9450   1.9450   1.9506   1.9506   1.9603   1.9603
     1.9606   1.9606   1.9791   1.9791   2.0073   2.0073   2.0178   2.0178
     2.0274   2.0274   2.0295   2.0295   2.0370   2.0370   2.0433   2.0433
     2.0716   2.0716   2.0772   2.0772   2.0829   2.0829   2.1042   2.1042
     2.1153   2.1153   2.1294   2.1294   2.1318   2.1318   2.1384   2.1384
     2.1449   2.1449   2.1529   2.1529   2.1894   2.1894   2.1958   2.1958
     2.2044   2.2044   2.2216   2.2216   2.2328   2.2328   2.2404   2.2404
     2.2550   2.2550   2.2723   2.2723   2.2915   2.2915   2.2935   2.2935
     2.3011   2.3011   2.3041   2.3041   2.3166   2.3166   2.3280   2.3280
     2.3476   2.3476   2.3510   2.3510   2.3574   2.3574   2.3575   2.3575
     2.3717   2.3717   2.3870   2.3870   2.3924   2.3924   2.4183   2.4183
     2.4342   2.4342   2.4354   2.4354   2.4376   2.4376   2.4382   2.4382
     2.4434   2.4434   2.4511   2.4511   2.4564   2.4564   2.4611   2.4611
     2.4621   2.4621   2.4654   2.4654   2.4714   2.4714   2.4812   2.4812
     2.4843   2.4843   2.4884   2.4884   2.5108   2.5108   2.5196   2.5196
     2.5226   2.5226   2.5240   2.5240   2.5383   2.5383   2.5408   2.5408
     2.5662   2.5662   2.5686   2.5686   2.5704   2.5704   2.5778   2.5778
     2.5879   2.5879   2.5891   2.5891   2.5992   2.5992   2.6024   2.6024
     2.6044   2.6044   2.6064   2.6064   2.6118   2.6118   2.6253   2.6253
     2.6371   2.6371   2.6465   2.6465   2.6514   2.6514   2.6557   2.6557
     2.6855   2.6855   2.6882   2.6882   2.6884   2.6884   2.7009   2.7009
     2.7053   2.7053   2.7076   2.7076   2.7145   2.7145   2.7509   2.7509
     2.7795   2.7795   2.7849   2.7849   2.7885   2.7885   2.7939   2.7939
     2.7949   2.7949   2.8138   2.8138   2.8162   2.8162   2.8172   2.8172
     2.8214   2.8214   2.8254   2.8254   2.8264   2.8264   2.8308   2.8308
     2.8357   2.8357   2.8466   2.8467   2.8618   2.8618   2.8671   2.8671
     2.8767   2.8767   2.8947   2.8947   2.9016   2.9016   2.9316   2.9316
     2.9348   2.9348   2.9369   2.9369   2.9515   2.9515   2.9853   2.9853
     2.9879   2.9879   2.9984   2.9984   3.0070   3.0070   3.0258   3.0258
     3.0536   3.0536   3.0587   3.0587   3.0792   3.0792   3.0862   3.0862
     3.0898   3.0898   3.1070   3.1070   3.1082   3.1082   3.1084   3.1084
     3.1120   3.1120   3.1254   3.1254   3.1389   3.1389   3.1639   3.1639
     3.1650   3.1650   3.1702   3.1702   3.1795   3.1795   3.1814   3.1814
     3.1958   3.1958   3.2039   3.2039   3.2290   3.2290   3.2321   3.2321
     3.2442   3.2442   3.2609   3.2609   3.2650   3.2650   3.2686   3.2686
     3.2733   3.2733   3.2906   3.2906   3.2937   3.2937   3.3123   3.3123
     3.3155   3.3155   3.3239   3.3239   3.3385   3.3385   3.3394   3.3394
     3.3445   3.3445   3.3452   3.3452   3.3705   3.3705   3.3706   3.3706
     3.3713   3.3713   3.3850   3.3850   3.3873   3.3873   3.3903   3.3903
     3.4126   3.4126   3.4222   3.4222   3.4267   3.4267   3.4278   3.4278
     3.4380   3.4380   3.4386   3.4386   3.4394   3.4394   3.4499   3.4499
     3.4529   3.4529   3.4561   3.4561   3.4612   3.4612   3.4618   3.4618
     3.4671   3.4671   3.4902   3.4902   3.4903   3.4903   3.4952   3.4952
     3.5053   3.5053   3.5058   3.5058   3.5108   3.5108   3.5121   3.5121
     3.5389   3.5389   3.5394   3.5394   3.5480   3.5480   3.5592   3.5592
     3.5598   3.5598   3.5632   3.5632   3.5670   3.5670   3.5838   3.5838
     3.5913   3.5913   3.6050   3.6050   3.6180   3.6180   3.6261   3.6261
     3.6278   3.6278   3.6361   3.6361   3.6486   3.6486   3.6493   3.6493
     3.6589   3.6589   3.6624   3.6624   3.6769   3.6769   3.6834   3.6834
     3.6883   3.6883   3.6891   3.6891   3.6932   3.6932   3.6978   3.6978
     3.7072   3.7072   3.7239   3.7239   3.7278   3.7278   3.7307   3.7307
[...]
    12.4978  12.4978  12.6153  12.6153  12.6162  12.6162  12.6326  12.6326
    12.6412  12.6412  12.8165  12.8165  12.8852  12.8852  12.9061  12.9061
    12.9279  12.9279  12.9944  12.9944  13.0021  13.0021  13.0110  13.0110
    13.0535  13.0535  13.0569  13.0569  13.1155  13.1155  13.1474  13.1474
    13.1591  13.1591  13.1748  13.1748  13.3116  13.3116  13.3809  13.3809
    13.4027  13.4027  13.4298  13.4298  13.4740  13.4740  13.5269  13.5269
    13.5619  13.5619  13.5777  13.5777  13.5953  13.5953  13.6178  13.6178
    13.6319  13.6319  13.6665  13.6665  13.7349  13.7349  13.7724  13.7724
    13.7755  13.7755  13.7888  13.7888  13.8456  13.8456  13.9139  13.9139
    13.9243  13.9243  13.9338  13.9338  13.9664  13.9664  13.9710  13.9710
    14.0728  14.0728  14.1199  14.1199  14.1861  14.1861  14.2089  14.2089
    14.2757  14.2757  14.2859  14.2859  14.2877  14.2877  14.2922  14.2922
    14.2965  14.2965  14.2972  14.2972  14.3067  14.3067  14.3957  14.3957
    14.4468  14.4468  14.4483  14.4483  14.4632  14.4632  14.4937  14.4937
    14.5866  14.5867  14.6433  14.6521  14.6522

     the Fermi energy is     8.2692 ev

!    total energy              =  -29385.42679267 Ry
     estimated scf accuracy    <       0.00000012 Ry
     smearing contrib. (-TS)   =       0.37949105 Ry
     internal energy E=F+TS    =  -29385.80628372 Ry

     The total energy is F=E-TS. E is the sum of the following terms:
     one-electron contribution = -135597.07914259 Ry
     hartree contribution      =   70793.57353635 Ry
     xc contribution           =  -14204.02874601 Ry
     ewald contribution        =   49621.72806853 Ry

     convergence has been achieved in  27 iterations

     negative rho (up, down):  7.835E+00 0.000E+00

     Forces acting on atoms (cartesian axes, Ry/au):

     atom    1 type  1   force =     0.00000000   -0.00165133    0.02672487
     atom    2 type  1   force =    -0.00000226   -0.00165104    0.02672257
     atom    3 type  1   force =     0.00000000   -0.00165238    0.02672250
     atom    4 type  1   force =     0.00000000   -0.00165116    0.02672486
     atom    5 type  1   force =     0.00000226   -0.00165104    0.02672257
     atom    6 type  1   force =    -0.00000207   -0.00165090    0.02672248
     atom    7 type  1   force =     0.00000000   -0.00165242    0.02672224
     atom    8 type  1   force =     0.00000000   -0.00165176    0.02672458
     atom    9 type  1   force =     0.00000207   -0.00165090    0.02672248
     atom   10 type  1   force =    -0.00000215   -0.00165159    0.02672236
     atom   11 type  1   force =     0.00000000   -0.00165314    0.02672212
     atom   12 type  1   force =     0.00000000   -0.00165159    0.02672493
     atom   13 type  1   force =     0.00000215   -0.00165159    0.02672236
     atom   14 type  1   force =    -0.00000232   -0.00165143    0.02672272
     atom   15 type  1   force =     0.00000000   -0.00165298    0.02672271
     atom   16 type  1   force =     0.00000232   -0.00165143    0.02672272
     atom   17 type  1   force =    -0.00000241    0.00336054   -0.01658593
     atom   18 type  1   force =    -0.00000252    0.00335983   -0.01658560
     atom   19 type  1   force =     0.00000252    0.00335983   -0.01658560
     atom   20 type  1   force =    -0.00000239    0.00336056   -0.01658605
     atom   21 type  1   force =     0.00000248    0.00335976   -0.01658582
     atom   22 type  1   force =     0.00000241    0.00336054   -0.01658593
     atom   23 type  1   force =    -0.00000242    0.00336034   -0.01658605
     atom   24 type  1   force =    -0.00000248    0.00335976   -0.01658582
     atom   25 type  1   force =    -0.00000248    0.00335954   -0.01658574
     atom   26 type  1   force =     0.00000239    0.00336056   -0.01658605
     atom   27 type  1   force =    -0.00000208   -0.00160201   -0.00967742
     atom   28 type  1   force =    -0.00000207   -0.00160210   -0.00967764
     atom   29 type  1   force =     0.00000000   -0.00160223   -0.00967578
     atom   30 type  1   force =    -0.00000254    0.00335969   -0.01658545
     atom   31 type  1   force =     0.00000248    0.00335954   -0.01658574
     atom   32 type  1   force =     0.00000000   -0.00160210   -0.00967905
     atom   33 type  1   force =     0.00000208   -0.00160201   -0.00967742
     atom   34 type  1   force =    -0.00000245    0.00336051   -0.01658579
     atom   35 type  1   force =     0.00000254    0.00335969   -0.01658545
     atom   36 type  1   force =     0.00000242    0.00336034   -0.01658605
     atom   37 type  1   force =     0.00000245    0.00336051   -0.01658579
     atom   38 type  1   force =     0.00000000   -0.00160222   -0.00967924
     atom   39 type  1   force =     0.00000207   -0.00160210   -0.00967764
     atom   40 type  1   force =     0.00000212   -0.00160236   -0.00967735
     atom   41 type  1   force =    -0.00000212   -0.00160236   -0.00967735
     atom   42 type  1   force =     0.00000000   -0.00160243   -0.00967889
     atom   43 type  1   force =     0.00000000   -0.00160227   -0.00967603
     atom   44 type  1   force =    -0.00000213   -0.00160197   -0.00967732
     atom   45 type  1   force =     0.00000000   -0.00160204   -0.00967885
     atom   46 type  1   force =     0.00000000   -0.00160250   -0.00967580
     atom   47 type  1   force =     0.00000213   -0.00160197   -0.00967732
     atom   48 type  1   force =     0.00000000   -0.00160217   -0.00967581
     atom   49 type  1   force =    -0.00000220    0.00056164   -0.00388657
     atom   50 type  1   force =     0.00000173   -0.00053364    0.00452637
     atom   51 type  1   force =     0.00000000    0.00056127   -0.00388690
     atom   52 type  1   force =     0.00000220    0.00056164   -0.00388657
     atom   53 type  1   force =    -0.00000183   -0.00053383    0.00452747
     atom   54 type  1   force =    -0.00000173   -0.00053364    0.00452637
     atom   55 type  1   force =    -0.00000218    0.00056152   -0.00388663
     atom   56 type  1   force =     0.00000000    0.00056112   -0.00388696
     atom   57 type  1   force =     0.00000000    0.00056098   -0.00388692
     atom   58 type  1   force =     0.00000000    0.00056111   -0.00388682
     atom   59 type  1   force =     0.00000218    0.00056152   -0.00388663
     atom   60 type  1   force =     0.00000000    0.00056188   -0.00388490
[...]
     atom  274 type  1   force =     0.00000109    0.00164630   -0.02670753
     atom  275 type  1   force =    -0.00000106    0.00164727   -0.02670747
     atom  276 type  1   force =     0.00000018    0.00164975   -0.02670383
     atom  277 type  1   force =    -0.00000012    0.00165002   -0.02670445
     atom  278 type  1   force =    -0.00000018    0.00164975   -0.02670383
     atom  279 type  1   force =    -0.00000019    0.00164896   -0.02670460
     atom  280 type  1   force =     0.00000108    0.00164763   -0.02670770
     atom  281 type  1   force =     0.00000106    0.00164727   -0.02670747
     atom  282 type  1   force =    -0.00000108    0.00164763   -0.02670770
     atom  283 type  1   force =    -0.00000109    0.00164630   -0.02670753
     atom  284 type  1   force =     0.00000012    0.00165002   -0.02670445
     atom  285 type  1   force =     0.00000013    0.00164871   -0.02670413
     atom  286 type  1   force =     0.00000019    0.00164896   -0.02670460
     atom  287 type  1   force =     0.00000109    0.00164649   -0.02670806
     atom  288 type  1   force =    -0.00000109    0.00164649   -0.02670806

     Total force =     0.190727     Total SCF correction =     0.000893

     General routines

     Parallel routines

   This run was terminated on:   2: 7: 9  25Sep2021

   JOB DONE.