     Program PWSCF v.6.6 starts on  8Jul2021 at 22:40:35

     R & G space division:  proc/nbgrp/npool/nimage =      24
     wavefunctions fft division:  Y-proc x Z-proc =       2     12
     wavefunctions fft division:  task group distribution
                                  #TG    x Z-proc =       2     12
     Fft bands division:     nmany     =       1
     Reading input from ../inputs/input_nickel_64
Warning: card &CELL ignored
Warning: card / ignored

     Current dimensions of program PWSCF are:
     Max number of different atomic species (ntypx) = 10
     Max number of k-points (npk) =  40000
     Max angular momentum in pseudopotentials (lmaxx) =  3
     file Ni.pz-nd-rrkjus.UPF: wavefunction(s)  4S renormalized

     Subspace diagonalization in iterative solution of the eigenvalue problem:
     one sub-group per band group will be used

     Found symmetry operation: I + (  0.2500  0.0000  0.0000)
     This is a supercell, fractional translations are disabled

     Title:
     'srtio_bulk'

     bravais-lattice index     =            2
     lattice parameter (alat)  =      25.9200  a.u.
     unit-cell volume          =    4353.5647 (a.u.)^3
     number of atoms/cell      =           64
     number of atomic types    =            1
     number of electrons       =       640.00
     number of Kohn-Sham states=          384
     kinetic-energy cutoff     =      24.0000  Ry
     charge density cutoff     =     288.0000  Ry
     convergence threshold     =      1.0E-08
     mixing beta               =       0.7000
     number of iterations used =            8  plain     mixing
     Exchange-correlation= SLA PZ NOGX NOGC
                           (   1   1   0   0   0   0   0)

     celldm(1)=  25.920000  celldm(2)=   0.000000  celldm(3)=   0.000000
     celldm(4)=   0.000000  celldm(5)=   0.000000  celldm(6)=   0.000000

     crystal axes: (cart. coord. in units of alat)
               a(1) = (  -0.500000   0.000000   0.500000 )
               a(2) = (   0.000000   0.500000   0.500000 )
               a(3) = (  -0.500000   0.500000   0.000000 )

     reciprocal axes: (cart. coord. in units 2 pi/alat)
               b(1) = ( -1.000000 -1.000000  1.000000 )
               b(2) = (  1.000000  1.000000  1.000000 )
               b(3) = ( -1.000000  1.000000 -1.000000 )

     PseudoPot. # 1 for Ni read from file:
     /marconi/home/userexternal/czeni000/dft_src/pseudo/Ni.pz-nd-rrkjus.UPF
     MD5 check sum: c0560dcc6f7f5ed80c213dd240803854
     Pseudo is Ultrasoft + core correction, Zval = 10.0
     Generated by new atomic code, or converted to UPF format
     Using radial grid of 1203 points,  6 beta functions with:
                l(1) =   0
                l(2) =   0
                l(3) =   1
                l(4) =   1
                l(5) =   2
                l(6) =   2
     Q(r) pseudized with 0 coefficients

     atomic species   valence    mass     pseudopotential
        Ni            10.00    58.69000     Ni( 1.00)

     48 Sym. Ops., with inversion, found

                                    s                        frac. trans.

      isym =  1     identity

 cryst.   s( 1) = (     1          0          0      )
                  (     0          1          0      )
                  (     0          0          1      )

 cart.    s( 1) = (  1.0000000  0.0000000  0.0000000 )
                  (  0.0000000  1.0000000  0.0000000 )
                  (  0.0000000  0.0000000  1.0000000 )

      isym =  2     180 deg rotation - cart. axis [0,0,1]

[...]

 cryst.   s( 9) = (    -1          0          0      )
                  (     0          0         -1      )
                  (     0         -1          0      )

 cart.    s( 9) = (  0.0000000  0.0000000  1.0000000 )
                  (  0.0000000 -1.0000000  0.0000000 )
                  (  1.0000000  0.0000000  0.0000000 )

[...]

 cryst.   s(10) = (     1          0          0      )
                  (     1         -1          0      )
                  (     1          0         -1      )

 cart.    s(10) = (  0.0000000  0.0000000 -1.0000000 )
                  (  0.0000000 -1.0000000  0.0000000 )
                  ( -1.0000000  0.0000000  0.0000000 )

[...]

      isym = 24     120 deg rotation - cart. axis [-1,-1,1]

[...]

      isym = 25     inversion

[...]

      isym = 26     inv. 180 deg rotation - cart. axis [0,0,1]

[...]

      isym = 48     inv. 120 deg rotation - cart. axis [-1,-1,1]

 cryst.   s(48) = (    -1          1          0      )
                  (     0          1         -1      )
                  (     0          1          0      )

 cart.    s(48) = (  0.0000000  0.0000000  1.0000000 )
                  ( -1.0000000  0.0000000  0.0000000 )
                  (  0.0000000  1.0000000  0.0000000 )

     point group O_h (m-3m)
     there are 10 classes
     the character table:

       E     8C3   3C2   6C4   6C2'  i     8S6   3s_h  6S4   6s_d
A_1g   1.00  1.00  1.00  1.00  1.00  1.00  1.00  1.00  1.00  1.00
A_2g   1.00  1.00  1.00 -1.00 -1.00  1.00  1.00  1.00 -1.00 -1.00
E_g    2.00 -1.00  2.00  0.00  0.00  2.00 -1.00  2.00  0.00  0.00
T_1g   3.00  0.00 -1.00  1.00 -1.00  3.00  0.00 -1.00  1.00 -1.00
T_2g   3.00  0.00 -1.00 -1.00  1.00  3.00  0.00 -1.00 -1.00  1.00
A_1u   1.00  1.00  1.00  1.00  1.00 -1.00 -1.00 -1.00 -1.00 -1.00
A_2u   1.00  1.00  1.00 -1.00 -1.00 -1.00 -1.00 -1.00  1.00  1.00
E_u    2.00 -1.00  2.00  0.00  0.00 -2.00  1.00 -2.00  0.00  0.00
T_1u   3.00  0.00 -1.00  1.00 -1.00 -3.00  0.00  1.00 -1.00  1.00
T_2u   3.00  0.00 -1.00 -1.00  1.00 -3.00  0.00  1.00  1.00 -1.00

     the symmetry operations in each class and the name of the first element:

     E        1
          identity
     8C3     17   19   20   18   24   21   22   23
          120 deg rotation - cart. axis [-1,-1,-1]
     3C2      2    4    3
          180 deg rotation - cart. axis [0,0,1]
     6C4      7    8   15   16   12   11
           90 deg rotation - cart. axis [0,0,-1]
     6C2'     5    6   14   13   10    9
          180 deg rotation - cart. axis [1,1,0]
     i       25
          inversion
     8S6     41   43   44   42   48   45   46   47
          inv. 120 deg rotation - cart. axis [-1,-1,-1]
     3s_h    26   28   27
          inv. 180 deg rotation - cart. axis [0,0,1]
     6S4     31   32   39   40   36   35
          inv.  90 deg rotation - cart. axis [0,0,-1]
     6s_d    29   30   38   37   34   33
          inv. 180 deg rotation - cart. axis [1,1,0]

   Cartesian axes

     site n.     atom                  positions (alat units)
         1           Ni  tau(   1) = (   0.0000000   0.0000000   0.0000000  )
         2           Ni  tau(   2) = (  -0.1250000   0.0000000   0.1250000  )
         3           Ni  tau(   3) = (   0.0000000   0.1250000   0.1250000  )
         4           Ni  tau(   4) = (  -0.1250000   0.1250000   0.2500000  )
         5           Ni  tau(   5) = (  -0.1250000   0.1250000   0.0000000  )
         6           Ni  tau(   6) = (  -0.2500000   0.1250000   0.1250000  )
         7           Ni  tau(   7) = (  -0.1250000   0.2500000   0.1250000  )
         8           Ni  tau(   8) = (  -0.2500000   0.2500000   0.2500000  )
         9           Ni  tau(   9) = (  -0.2500000   0.0000000   0.2500000  )
        10           Ni  tau(  10) = (  -0.3750000   0.0000000   0.3750000  )
        11           Ni  tau(  11) = (  -0.2500000   0.1250000   0.3750000  )
        12           Ni  tau(  12) = (  -0.3750000   0.1250000   0.5000000  )
        13           Ni  tau(  13) = (  -0.3750000   0.1250000   0.2500000  )
        14           Ni  tau(  14) = (  -0.5000000   0.1250000   0.3750000  )
        15           Ni  tau(  15) = (  -0.3750000   0.2500000   0.3750000  )
        16           Ni  tau(  16) = (  -0.5000000   0.2500000   0.5000000  )
        17           Ni  tau(  17) = (   0.0000000   0.2500000   0.2500000  )
        18           Ni  tau(  18) = (  -0.1250000   0.2500000   0.3750000  )
        19           Ni  tau(  19) = (   0.0000000   0.3750000   0.3750000  )
        20           Ni  tau(  20) = (  -0.1250000   0.3750000   0.5000000  )
        21           Ni  tau(  21) = (  -0.1250000   0.3750000   0.2500000  )
        22           Ni  tau(  22) = (  -0.2500000   0.3750000   0.3750000  )
        23           Ni  tau(  23) = (  -0.1250000   0.5000000   0.3750000  )
        24           Ni  tau(  24) = (  -0.2500000   0.5000000   0.5000000  )
        25           Ni  tau(  25) = (  -0.2500000   0.2500000   0.5000000  )
        26           Ni  tau(  26) = (  -0.3750000   0.2500000   0.6250000  )
        27           Ni  tau(  27) = (  -0.2500000   0.3750000   0.6250000  )
        28           Ni  tau(  28) = (  -0.3750000   0.3750000   0.7500000  )
        29           Ni  tau(  29) = (  -0.3750000   0.3750000   0.5000000  )
        30           Ni  tau(  30) = (  -0.5000000   0.3750000   0.6250000  )
        31           Ni  tau(  31) = (  -0.3750000   0.5000000   0.6250000  )
        32           Ni  tau(  32) = (  -0.5000000   0.5000000   0.7500000  )
        33           Ni  tau(  33) = (  -0.2500000   0.2500000   0.0000000  )
        34           Ni  tau(  34) = (  -0.3750000   0.2500000   0.1250000  )
        35           Ni  tau(  35) = (  -0.2500000   0.3750000   0.1250000  )
        36           Ni  tau(  36) = (  -0.3750000   0.3750000   0.2500000  )
        37           Ni  tau(  37) = (  -0.3750000   0.3750000   0.0000000  )
        38           Ni  tau(  38) = (  -0.5000000   0.3750000   0.1250000  )
        39           Ni  tau(  39) = (  -0.3750000   0.5000000   0.1250000  )
        40           Ni  tau(  40) = (  -0.5000000   0.5000000   0.2500000  )
        41           Ni  tau(  41) = (  -0.5000000   0.2500000   0.2500000  )
        42           Ni  tau(  42) = (  -0.6250000   0.2500000   0.3750000  )
        43           Ni  tau(  43) = (  -0.5000000   0.3750000   0.3750000  )
        44           Ni  tau(  44) = (  -0.6250000   0.3750000   0.5000000  )
        45           Ni  tau(  45) = (  -0.6250000   0.3750000   0.2500000  )
        46           Ni  tau(  46) = (  -0.7500000   0.3750000   0.3750000  )
        47           Ni  tau(  47) = (  -0.6250000   0.5000000   0.3750000  )
        48           Ni  tau(  48) = (  -0.7500000   0.5000000   0.5000000  )
        49           Ni  tau(  49) = (  -0.2500000   0.5000000   0.2500000  )
        50           Ni  tau(  50) = (  -0.3750000   0.5000000   0.3750000  )
        51           Ni  tau(  51) = (  -0.2500000   0.6250000   0.3750000  )
        52           Ni  tau(  52) = (  -0.3750000   0.6250000   0.5000000  )
        53           Ni  tau(  53) = (  -0.3750000   0.6250000   0.2500000  )
        54           Ni  tau(  54) = (  -0.5000000   0.6250000   0.3750000  )
        55           Ni  tau(  55) = (  -0.3750000   0.7500000   0.3750000  )
        56           Ni  tau(  56) = (  -0.5000000   0.7500000   0.5000000  )
        57           Ni  tau(  57) = (  -0.5000000   0.5000000   0.5000000  )
        58           Ni  tau(  58) = (  -0.6250000   0.5000000   0.6250000  )
        59           Ni  tau(  59) = (  -0.5000000   0.6250000   0.6250000  )
[...]
     atom   42 type  1   force =     0.00000192   -0.00001553    0.00000192
     atom   43 type  1   force =    -0.00000000   -0.00000422   -0.00000422
     atom   44 type  1   force =    -0.00000422   -0.00000422    0.00000000
     atom   45 type  1   force =     0.00000192    0.00000192   -0.00001553
     atom   46 type  1   force =    -0.00001553    0.00000192    0.00000192
     atom   47 type  1   force =    -0.00000422    0.00000000   -0.00000422
     atom   48 type  1   force =    -0.00002906    0.00000000    0.00000000
     atom   49 type  1   force =    -0.00000000    0.00000000    0.00000000
     atom   50 type  1   force =     0.00000422    0.00000000   -0.00000422
     atom   51 type  1   force =     0.00001553   -0.00000192    0.00000192
     atom   52 type  1   force =     0.00000422    0.00000422    0.00000000
     atom   53 type  1   force =    -0.00000192   -0.00000192   -0.00001553
     atom   54 type  1   force =    -0.00000000    0.00000422   -0.00000422
     atom   55 type  1   force =    -0.00000192    0.00001553    0.00000192
     atom   56 type  1   force =    -0.00000000    0.00002906    0.00000000
     atom   57 type  1   force =    -0.00000000    0.00000000    0.00000000
     atom   58 type  1   force =    -0.00000422    0.00000000    0.00000422
     atom   59 type  1   force =    -0.00000000    0.00000422    0.00000422
     atom   60 type  1   force =     0.00000192   -0.00000192    0.00001553
     atom   61 type  1   force =    -0.00000422    0.00000422    0.00000000
     atom   62 type  1   force =    -0.00001553   -0.00000192   -0.00000192
     atom   63 type  1   force =     0.00000192    0.00001553   -0.00000192
     atom   64 type  1   force =    -0.00000000    0.00000000    0.00000000
     The core correction contribution to forces
     atom    1 type  1   force =    -0.00000000    0.00000000    0.00000000
     atom    2 type  1   force =     0.00000040    0.00000000   -0.00000040
     atom    3 type  1   force =    -0.00000000   -0.00000040   -0.00000040
     atom    4 type  1   force =    -0.00000002    0.00000002    0.00000001
     atom    5 type  1   force =     0.00000040   -0.00000040    0.00000000
     atom    6 type  1   force =    -0.00000001    0.00000002    0.00000002
     atom    7 type  1   force =    -0.00000002    0.00000001    0.00000002
     atom    8 type  1   force =    -0.00000000    0.00000000    0.00000000
     atom    9 type  1   force =    -0.00000000    0.00000000    0.00000000
     atom   10 type  1   force =    -0.00000040    0.00000000    0.00000040
     atom   11 type  1   force =     0.00000001    0.00000002   -0.00000002
     atom   12 type  1   force =    -0.00000040   -0.00000040    0.00000000
     atom   13 type  1   force =     0.00000002    0.00000002   -0.00000001
     atom   14 type  1   force =    -0.00000000   -0.00000040    0.00000040
     atom   15 type  1   force =     0.00000002    0.00000001   -0.00000002
     atom   16 type  1   force =    -0.00000000   -0.00000029    0.00000000
     atom   17 type  1   force =    -0.00000000    0.00000000    0.00000000
     atom   18 type  1   force =    -0.00000002   -0.00000001   -0.00000002
     atom   19 type  1   force =    -0.00000000    0.00000040    0.00000040
     atom   20 type  1   force =     0.00000040    0.00000040    0.00000000
     atom   21 type  1   force =    -0.00000002   -0.00000002   -0.00000001
     atom   22 type  1   force =    -0.00000001   -0.00000002   -0.00000002
     atom   23 type  1   force =     0.00000040    0.00000000    0.00000040
     atom   24 type  1   force =     0.00000029    0.00000000    0.00000000
     atom   25 type  1   force =    -0.00000000    0.00000000    0.00000000
     atom   26 type  1   force =     0.00000002    0.00000001    0.00000002
     atom   27 type  1   force =    -0.00000001   -0.00000002    0.00000002
     atom   28 type  1   force =     0.00000002   -0.00000002   -0.00000001
     atom   29 type  1   force =     0.00000005   -0.00000005    0.00000000
     atom   30 type  1   force =    -0.00000000   -0.00000005    0.00000005
     atom   31 type  1   force =     0.00000005    0.00000000    0.00000005
     atom   32 type  1   force =    -0.00000000    0.00000000    0.00000029
     atom   33 type  1   force =    -0.00000000    0.00000000    0.00000000
     atom   34 type  1   force =     0.00000002   -0.00000001    0.00000002
     atom   35 type  1   force =     0.00000001   -0.00000002    0.00000002
     atom   36 type  1   force =     0.00000002   -0.00000002    0.00000001
     atom   37 type  1   force =    -0.00000040    0.00000040    0.00000000
     atom   38 type  1   force =    -0.00000000    0.00000040   -0.00000040
     atom   39 type  1   force =    -0.00000040    0.00000000   -0.00000040
     atom   40 type  1   force =    -0.00000000    0.00000000   -0.00000029
     atom   41 type  1   force =    -0.00000000    0.00000000    0.00000000
     atom   42 type  1   force =    -0.00000002    0.00000001   -0.00000002
     atom   43 type  1   force =    -0.00000000   -0.00000005   -0.00000005
     atom   44 type  1   force =    -0.00000005   -0.00000005    0.00000000
     atom   45 type  1   force =    -0.00000002   -0.00000002    0.00000001
     atom   46 type  1   force =     0.00000001   -0.00000002   -0.00000002
     atom   47 type  1   force =    -0.00000005    0.00000000   -0.00000005
     atom   48 type  1   force =    -0.00000029    0.00000000    0.00000000
     atom   49 type  1   force =    -0.00000000    0.00000000    0.00000000
     atom   50 type  1   force =     0.00000005    0.00000000   -0.00000005
     atom   51 type  1   force =    -0.00000001    0.00000002   -0.00000002
     atom   52 type  1   force =     0.00000005    0.00000005    0.00000000
     atom   53 type  1   force =     0.00000002    0.00000002    0.00000001
     atom   54 type  1   force =    -0.00000000    0.00000005   -0.00000005
     atom   55 type  1   force =     0.00000002   -0.00000001   -0.00000002
     atom   56 type  1   force =    -0.00000000    0.00000029    0.00000000
     atom   57 type  1   force =    -0.00000000    0.00000000    0.00000000
     atom   58 type  1   force =    -0.00000005    0.00000000    0.00000005
     atom   59 type  1   force =    -0.00000000    0.00000005    0.00000005
     atom   60 type  1   force =    -0.00000002    0.00000002   -0.00000001
     atom   61 type  1   force =    -0.00000005    0.00000005    0.00000000
     atom   62 type  1   force =     0.00000001    0.00000002    0.00000002
     atom   63 type  1   force =    -0.00000002   -0.00000001    0.00000002
     atom   64 type  1   force =    -0.00000000    0.00000000    0.00000000
     The Hubbard contrib.    to forces
     atom    1 type  1   force =     0.00000000    0.00000000    0.00000000
     atom    2 type  1   force =     0.00000000    0.00000000    0.00000000
     atom    3 type  1   force =     0.00000000    0.00000000    0.00000000
     atom    4 type  1   force =     0.00000000    0.00000000    0.00000000
     atom    5 type  1   force =     0.00000000    0.00000000    0.00000000
     atom    6 type  1   force =     0.00000000    0.00000000    0.00000000
     atom    7 type  1   force =     0.00000000    0.00000000    0.00000000
     atom    8 type  1   force =     0.00000000    0.00000000    0.00000000
     atom    9 type  1   force =     0.00000000    0.00000000    0.00000000
     atom   10 type  1   force =     0.00000000    0.00000000    0.00000000
     atom   11 type  1   force =     0.00000000    0.00000000    0.00000000
     atom   12 type  1   force =     0.00000000    0.00000000    0.00000000
     atom   13 type  1   force =     0.00000000    0.00000000    0.00000000
     atom   14 type  1   force =     0.00000000    0.00000000    0.00000000
     atom   15 type  1   force =     0.00000000    0.00000000    0.00000000
     atom   16 type  1   force =     0.00000000    0.00000000    0.00000000
     atom   17 type  1   force =     0.00000000    0.00000000    0.00000000
     atom   18 type  1   force =     0.00000000    0.00000000    0.00000000
     atom   19 type  1   force =     0.00000000    0.00000000    0.00000000
     atom   20 type  1   force =     0.00000000    0.00000000    0.00000000
     atom   21 type  1   force =     0.00000000    0.00000000    0.00000000
     atom   22 type  1   force =     0.00000000    0.00000000    0.00000000
     atom   23 type  1   force =     0.00000000    0.00000000    0.00000000
     atom   24 type  1   force =     0.00000000    0.00000000    0.00000000
     atom   25 type  1   force =     0.00000000    0.00000000    0.00000000
     atom   26 type  1   force =     0.00000000    0.00000000    0.00000000
     atom   27 type  1   force =     0.00000000    0.00000000    0.00000000
     atom   28 type  1   force =     0.00000000    0.00000000    0.00000000
     atom   29 type  1   force =     0.00000000    0.00000000    0.00000000
     atom   30 type  1   force =     0.00000000    0.00000000    0.00000000
     atom   31 type  1   force =     0.00000000    0.00000000    0.00000000
     atom   32 type  1   force =     0.00000000    0.00000000    0.00000000
     atom   33 type  1   force =     0.00000000    0.00000000    0.00000000
     atom   34 type  1   force =     0.00000000    0.00000000    0.00000000
     atom   35 type  1   force =     0.00000000    0.00000000    0.00000000
     atom   36 type  1   force =     0.00000000    0.00000000    0.00000000
     atom   37 type  1   force =     0.00000000    0.00000000    0.00000000
     atom   38 type  1   force =     0.00000000    0.00000000    0.00000000
     atom   39 type  1   force =     0.00000000    0.00000000    0.00000000
     atom   40 type  1   force =     0.00000000    0.00000000    0.00000000
     atom   41 type  1   force =     0.00000000    0.00000000    0.00000000
     atom   42 type  1   force =     0.00000000    0.00000000    0.00000000
     atom   43 type  1   force =     0.00000000    0.00000000    0.00000000
     atom   44 type  1   force =     0.00000000    0.00000000    0.00000000
     atom   45 type  1   force =     0.00000000    0.00000000    0.00000000
     atom   46 type  1   force =     0.00000000    0.00000000    0.00000000
     atom   47 type  1   force =     0.00000000    0.00000000    0.00000000
     atom   48 type  1   force =     0.00000000    0.00000000    0.00000000
     atom   49 type  1   force =     0.00000000    0.00000000    0.00000000
     atom   50 type  1   force =     0.00000000    0.00000000    0.00000000
     atom   51 type  1   force =     0.00000000    0.00000000    0.00000000
     atom   52 type  1   force =     0.00000000    0.00000000    0.00000000
     atom   53 type  1   force =     0.00000000    0.00000000    0.00000000
     atom   54 type  1   force =     0.00000000    0.00000000    0.00000000
     atom   55 type  1   force =     0.00000000    0.00000000    0.00000000
     atom   56 type  1   force =     0.00000000    0.00000000    0.00000000
     atom   57 type  1   force =     0.00000000    0.00000000    0.00000000
     atom   58 type  1   force =     0.00000000    0.00000000    0.00000000
     atom   59 type  1   force =     0.00000000    0.00000000    0.00000000
     atom   60 type  1   force =     0.00000000    0.00000000    0.00000000
     atom   61 type  1   force =     0.00000000    0.00000000    0.00000000
     atom   62 type  1   force =     0.00000000    0.00000000    0.00000000
     atom   63 type  1   force =     0.00000000    0.00000000    0.00000000
     atom   64 type  1   force =     0.00000000    0.00000000    0.00000000
     The SCF correction term to forces
     atom    1 type  1   force =     0.00000000   -0.00000000    0.00000000
     atom    2 type  1   force =     0.00000080   -0.00000000   -0.00000080
     atom    3 type  1   force =     0.00000000   -0.00000080   -0.00000080
     atom    4 type  1   force =    -0.00000237    0.00000237    0.00001626
     atom    5 type  1   force =     0.00000080   -0.00000080    0.00000000
     atom    6 type  1   force =    -0.00001626    0.00000237    0.00000237
     atom    7 type  1   force =    -0.00000237    0.00001626    0.00000237
     atom    8 type  1   force =     0.00000000   -0.00000000    0.00000000
     atom    9 type  1   force =     0.00000000   -0.00000000   -0.00000000
     atom   10 type  1   force =    -0.00000080   -0.00000000    0.00000080
     atom   11 type  1   force =     0.00001626    0.00000237   -0.00000237
     atom   12 type  1   force =    -0.00000080   -0.00000080   -0.00000000
     atom   13 type  1   force =     0.00000237    0.00000237   -0.00001626
     atom   14 type  1   force =     0.00000000   -0.00000080    0.00000080
     atom   15 type  1   force =     0.00000237    0.00001626   -0.00000237
     atom   16 type  1   force =     0.00000000    0.00003148    0.00000000
     atom   17 type  1   force =    -0.00000000   -0.00000000   -0.00000000
     atom   18 type  1   force =    -0.00000237   -0.00001626   -0.00000237
     atom   19 type  1   force =     0.00000000    0.00000080    0.00000080
     atom   20 type  1   force =     0.00000080    0.00000080    0.00000000
     atom   21 type  1   force =    -0.00000237   -0.00000237   -0.00001626
     atom   22 type  1   force =    -0.00001626   -0.00000237   -0.00000237
     atom   23 type  1   force =     0.00000080   -0.00000000    0.00000080
     atom   24 type  1   force =    -0.00003148   -0.00000000   -0.00000000
     atom   25 type  1   force =     0.00000000   -0.00000000   -0.00000000
     atom   26 type  1   force =     0.00000237    0.00001626    0.00000237
     atom   27 type  1   force =    -0.00001626   -0.00000237    0.00000237
     atom   28 type  1   force =     0.00000237   -0.00000237   -0.00001626
     atom   29 type  1   force =    -0.00000461    0.00000461    0.00000000
     atom   30 type  1   force =     0.00000000    0.00000461   -0.00000461
     atom   31 type  1   force =    -0.00000461   -0.00000000   -0.00000461
     atom   32 type  1   force =     0.00000000   -0.00000000   -0.00003148
     atom   33 type  1   force =    -0.00000000   -0.00000000   -0.00000000
     atom   34 type  1   force =     0.00000237   -0.00001626    0.00000237
     atom   35 type  1   force =     0.00001626   -0.00000237    0.00000237
     atom   36 type  1   force =     0.00000237   -0.00000237    0.00001626
     atom   37 type  1   force =    -0.00000080    0.00000080    0.00000000
     atom   38 type  1   force =     0.00000000    0.00000080   -0.00000080
     atom   39 type  1   force =    -0.00000080    0.00000000   -0.00000080
     atom   40 type  1   force =     0.00000000    0.00000000    0.00003148
     atom   41 type  1   force =    -0.00000000    0.00000000   -0.00000000
     atom   42 type  1   force =    -0.00000237    0.00001626   -0.00000237
     atom   43 type  1   force =    -0.00000000    0.00000461    0.00000461
     atom   44 type  1   force =     0.00000461    0.00000461   -0.00000000
     atom   45 type  1   force =    -0.00000237   -0.00000237    0.00001626
     atom   46 type  1   force =     0.00001626   -0.00000237   -0.00000237
     atom   47 type  1   force =     0.00000461    0.00000000    0.00000461
     atom   48 type  1   force =     0.00003148   -0.00000000    0.00000000
     atom   49 type  1   force =    -0.00000000   -0.00000000   -0.00000000
     atom   50 type  1   force =    -0.00000461   -0.00000000    0.00000461
     atom   51 type  1   force =    -0.00001626    0.00000237   -0.00000237
     atom   52 type  1   force =    -0.00000461   -0.00000461    0.00000000
     atom   53 type  1   force =     0.00000237    0.00000237    0.00001626
     atom   54 type  1   force =     0.00000000   -0.00000461    0.00000461
     atom   55 type  1   force =     0.00000237   -0.00001626   -0.00000237
     atom   56 type  1   force =     0.00000000   -0.00003148   -0.00000000
     atom   57 type  1   force =     0.00000000   -0.00000000   -0.00000000
     atom   58 type  1   force =     0.00000461   -0.00000000   -0.00000461
     atom   59 type  1   force =     0.00000000   -0.00000461   -0.00000461
     atom   60 type  1   force =    -0.00000237    0.00000237   -0.00001626
     atom   61 type  1   force =     0.00000461   -0.00000461   -0.00000000
     atom   62 type  1   force =     0.00001626    0.00000237    0.00000237
     atom   63 type  1   force =    -0.00000237   -0.00001626    0.00000237
     atom   64 type  1   force =     0.00000000    0.00000000   -0.00000000

     Total force =     0.000083     Total SCF correction =     0.000114
     SCF correction compared to forces is large: reduce conv_thr to get better values

     Writing output data file ./ni.save/

     General routines

     Parallel routines

   This run was terminated on:  22:41:11   8Jul2021

   JOB DONE.