     Program PWSCF v.6.6 starts on  7Jul2021 at 13:23:30

     K-points division:     npool     =       8
     R & G space division:  proc/nbgrp/npool/nimage =      12
     wavefunctions fft division:  Y-proc x Z-proc =       4      3
     wavefunctions fft division:  task group distribution
                                  #TG    x Z-proc =       4      3
     Fft bands division:     nmany     =       1
     Reading input from ../inputs/input_perovskite_320

     Current dimensions of program PWSCF are:
     Max number of different atomic species (ntypx) = 10
     Max number of k-points (npk) =  40000
     Max angular momentum in pseudopotentials (lmaxx) =  3

     Subspace diagonalization in iterative solution of the eigenvalue problem:
     one sub-group per band group will be used

     Found symmetry operation: I + (  0.0000  0.0000  0.2500)
     This is a supercell, fractional translations are disabled
     Message from routine divide_et_impera:
     suboptimal parallelization: some nodes have no k-points

     bravais-lattice index     =            1
     lattice parameter (alat)  =      29.4796  a.u.
     unit-cell volume          =   25619.1525 (a.u.)^3
     number of atoms/cell      =          320
     number of atomic types    =            3
     number of electrons       =      2816.00
     number of Kohn-Sham states=         1600
     kinetic-energy cutoff     =      25.0000  Ry
     charge density cutoff     =     240.0000  Ry
     convergence threshold     =      1.0E-08
     mixing beta               =       0.3000
     number of iterations used =            8  plain     mixing
     Exchange-correlation=  SLA  PZ   NOGX NOGC
                           (   1   1   0   0   0   0   0)

     celldm(1)=  29.479600  celldm(2)=   0.000000  celldm(3)=   0.000000
     celldm(4)=   0.000000  celldm(5)=   0.000000  celldm(6)=   0.000000

     crystal axes: (cart. coord. in units of alat)
               a(1) = (   1.000000   0.000000   0.000000 )
               a(2) = (   0.000000   1.000000   0.000000 )
               a(3) = (   0.000000   0.000000   1.000000 )

     reciprocal axes: (cart. coord. in units 2 pi/alat)
               b(1) = (  1.000000  0.000000  0.000000 )
               b(2) = (  0.000000  1.000000  0.000000 )
               b(3) = (  0.000000  0.000000  1.000000 )

     PseudoPot. # 1 for Pb read from file:
     /marconi/home/userexternal/czeni000/dft_src/pseudo/Pb.pz-d-van.UPF
     MD5 check sum: 4e1e5920686a026ae26139ac417581ff
     Pseudo is Ultrasoft, Zval = 14.0
     Generated by new atomic code, or converted to UPF format
     Using radial grid of  899 points,  6 beta functions with:
                l(1) =   0
                l(2) =   0
                l(3) =   1
                l(4) =   1
                l(5) =   2
                l(6) =   2
     Q(r) pseudized with  8 coefficients,  rinner =    1.000   1.000   1.000
                                                       1.000   1.000

     PseudoPot. # 2 for Ti read from file:
     /marconi/home/userexternal/czeni000/dft_src/pseudo/Ti.pz-sp-van_ak.UPF
     MD5 check sum: 545d0e6e05332b8871a8093f427cb0ca
     Pseudo is Ultrasoft, Zval = 12.0
     Generated by new atomic code, or converted to UPF format
     Using radial grid of  851 points,  6 beta functions with:
                l(1) =   0
                l(2) =   0
                l(3) =   1
                l(4) =   1
                l(5) =   2
                l(6) =   2
     Q(r) pseudized with  8 coefficients,  rinner =    1.000   1.000   1.000
                                                       1.000   1.000

     PseudoPot. # 3 for O  read from file:
     /marconi/home/userexternal/czeni000/dft_src/pseudo/O.pz-van_ak.UPF
     MD5 check sum: d814fcb982dd9af4fc6452aae6bb9318
     Pseudo is Ultrasoft, Zval =  6.0
     Generated by new atomic code, or converted to UPF format
     Using radial grid of  737 points,  4 beta functions with:
                l(1) =   0
                l(2) =   0
                l(3) =   1
                l(4) =   1
     Q(r) pseudized with  8 coefficients,  rinner =    0.800   0.800   0.800

     atomic species   valence    mass     pseudopotential
        Pb            14.00   207.20000     Pb( 1.00)
        Ti            12.00    47.86700     Ti( 1.00)
        O              6.00    15.99940     O ( 1.00)

     48 Sym. Ops., with inversion, found

   Cartesian axes

     site n.     atom                  positions (alat units)
         1           Pb  tau(   1) = (   0.0000000   0.0000000   0.0000000  )
         2           Pb  tau(   2) = (   0.0000000   0.0000000   0.2500000  )
         3           Pb  tau(   3) = (   0.0000000   0.2500000   0.0000000  )
         4           Pb  tau(   4) = (   0.0000000   0.2500000   0.2500000  )
         5           Pb  tau(   5) = (   0.2500000   0.0000000   0.0000000  )
         6           Pb  tau(   6) = (   0.2500000   0.0000000   0.2500000  )
         7           Pb  tau(   7) = (   0.2500000   0.2500000   0.0000000  )
         8           Pb  tau(   8) = (   0.2500000   0.2500000   0.2500000  )
         9           Ti  tau(   9) = (   0.1250000   0.1250000   0.1250000  )
        10           Ti  tau(  10) = (   0.1250000   0.1250000   0.3750000  )
        11           Ti  tau(  11) = (   0.1250000   0.3750000   0.1250000  )
        12           Ti  tau(  12) = (   0.1250000   0.3750000   0.3750000  )
        13           Ti  tau(  13) = (   0.3750000   0.1250000   0.1250000  )
        14           Ti  tau(  14) = (   0.3750000   0.1250000   0.3750000  )
        15           Ti  tau(  15) = (   0.3750000   0.3750000   0.1250000  )
        16           Ti  tau(  16) = (   0.3750000   0.3750000   0.3750000  )
        17           O   tau(  17) = (   0.0000000   0.1250000   0.1250000  )
        18           O   tau(  18) = (   0.0000000   0.1250000   0.3750000  )
        19           O   tau(  19) = (   0.0000000   0.3750000   0.1250000  )
        20           O   tau(  20) = (   0.0000000   0.3750000   0.3750000  )
        21           O   tau(  21) = (   0.2500000   0.1250000   0.1250000  )
        22           O   tau(  22) = (   0.2500000   0.1250000   0.3750000  )
        23           O   tau(  23) = (   0.2500000   0.3750000   0.1250000  )
        24           O   tau(  24) = (   0.2500000   0.3750000   0.3750000  )
        25           O   tau(  25) = (   0.1250000   0.1250000   0.0000000  )
        26           O   tau(  26) = (   0.1250000   0.1250000   0.2500000  )
        27           O   tau(  27) = (   0.1250000   0.3750000   0.0000000  )
        28           O   tau(  28) = (   0.1250000   0.3750000   0.2500000  )
        29           O   tau(  29) = (   0.3750000   0.1250000   0.0000000  )
        30           O   tau(  30) = (   0.3750000   0.1250000   0.2500000  )
        31           O   tau(  31) = (   0.3750000   0.3750000   0.0000000  )
        32           O   tau(  32) = (   0.3750000   0.3750000   0.2500000  )
        33           O   tau(  33) = (   0.1250000   0.0000000   0.1250000  )
        34           O   tau(  34) = (   0.1250000   0.0000000   0.3750000  )
        35           O   tau(  35) = (   0.1250000   0.2500000   0.1250000  )
        36           O   tau(  36) = (   0.1250000   0.2500000   0.3750000  )
        37           O   tau(  37) = (   0.3750000   0.0000000   0.1250000  )
        38           O   tau(  38) = (   0.3750000   0.0000000   0.3750000  )
        39           O   tau(  39) = (   0.3750000   0.2500000   0.1250000  )
        40           O   tau(  40) = (   0.3750000   0.2500000   0.3750000  )
        41           Pb  tau(  41) = (   0.5000000   0.0000000   0.0000000  )
        42           Pb  tau(  42) = (   0.5000000   0.0000000   0.2500000  )
        43           Pb  tau(  43) = (   0.5000000   0.2500000   0.0000000  )
        44           Pb  tau(  44) = (   0.5000000   0.2500000   0.2500000  )
        45           Pb  tau(  45) = (   0.7500000   0.0000000   0.0000000  )
        46           Pb  tau(  46) = (   0.7500000   0.0000000   0.2500000  )
        47           Pb  tau(  47) = (   0.7500000   0.2500000   0.0000000  )
        48           Pb  tau(  48) = (   0.7500000   0.2500000   0.2500000  )
        49           Ti  tau(  49) = (   0.6250000   0.1250000   0.1250000  )
        50           Ti  tau(  50) = (   0.6250000   0.1250000   0.3750000  )
        51           Ti  tau(  51) = (   0.6250000   0.3750000   0.1250000  )
        52           Ti  tau(  52) = (   0.6250000   0.3750000   0.3750000  )
        53           Ti  tau(  53) = (   0.8750000   0.1250000   0.1250000  )
        54           Ti  tau(  54) = (   0.8750000   0.1250000   0.3750000  )
        55           Ti  tau(  55) = (   0.8750000   0.3750000   0.1250000  )
        56           Ti  tau(  56) = (   0.8750000   0.3750000   0.3750000  )
        57           O   tau(  57) = (   0.5000000   0.1250000   0.1250000  )
        58           O   tau(  58) = (   0.5000000   0.1250000   0.3750000  )
        59           O   tau(  59) = (   0.5000000   0.3750000   0.1250000  )
        60           O   tau(  60) = (   0.5000000   0.3750000   0.3750000  )
[...]
       306           O   tau( 306) = (   0.6250000   0.6250000   0.7500000  )
       307           O   tau( 307) = (   0.6250000   0.8750000   0.5000000  )
       308           O   tau( 308) = (   0.6250000   0.8750000   0.7500000  )
       309           O   tau( 309) = (   0.8750000   0.6250000   0.5000000  )
       310           O   tau( 310) = (   0.8750000   0.6250000   0.7500000  )
       311           O   tau( 311) = (   0.8750000   0.8750000   0.5000000  )
       312           O   tau( 312) = (   0.8750000   0.8750000   0.7500000  )
       313           O   tau( 313) = (   0.6250000   0.5000000   0.6250000  )
       314           O   tau( 314) = (   0.6250000   0.5000000   0.8750000  )
       315           O   tau( 315) = (   0.6250000   0.7500000   0.6250000  )
       316           O   tau( 316) = (   0.6250000   0.7500000   0.8750000  )
       317           O   tau( 317) = (   0.8750000   0.5000000   0.6250000  )
       318           O   tau( 318) = (   0.8750000   0.5000000   0.8750000  )
       319           O   tau( 319) = (   0.8750000   0.7500000   0.6250000  )
       320           O   tau( 320) = (   0.8750000   0.7500000   0.8750000  )

     number of k points=     1
                       cart. coord. in units 2pi/alat
        k(    1) = (  -0.5000000  -0.5000000  -0.5000000), wk =   2.0000000

     Initial potential from superposition of free atoms

     starting charge 2751.88259, renormalised to 2816.00000
     Starting wfcs are 1984 randomized atomic wfcs

     Self-consistent Calculation

     iteration #  1     ecut=    25.00 Ry     beta= 0.30
     Davidson diagonalization with overlap
     ethr =  1.00E-02,  avg # of iterations =  2.0

     total energy              =  -21347.98645832 Ry
     estimated scf accuracy    <      62.59629839 Ry

[...]

     total energy              =  -21356.32153194 Ry
     estimated scf accuracy    <       0.00000001 Ry

     iteration # 18     ecut=    25.00 Ry     beta= 0.30
     Davidson diagonalization with overlap
     ethr =  5.30E-13,  avg # of iterations =  2.0

     End of self-consistent calculation

          k =-0.5000-0.5000-0.5000 ( 53968 PWs)   bands (ev):

   -45.0350 -45.0350 -45.0350 -45.0350 -45.0350 -45.0350 -45.0350 -45.0350
   -45.0342 -45.0342 -45.0342 -45.0342 -45.0342 -45.0342 -45.0342 -45.0342
   -45.0342 -45.0342 -45.0342 -45.0342 -45.0342 -45.0342 -45.0342 -45.0342
   -45.0342 -45.0342 -45.0342 -45.0342 -45.0342 -45.0342 -45.0342 -45.0342
   -45.0331 -45.0331 -45.0331 -45.0331 -45.0331 -45.0331 -45.0331 -45.0331
   -45.0331 -45.0331 -45.0331 -45.0331 -45.0331 -45.0331 -45.0331 -45.0331
   -45.0331 -45.0331 -45.0331 -45.0331 -45.0331 -45.0331 -45.0331 -45.0331
   -45.0317 -45.0317 -45.0317 -45.0317 -45.0317 -45.0317 -45.0317 -45.0317
   -21.6850 -21.6850 -21.6849 -21.6849 -21.6849 -21.6849 -21.6849 -21.6849
   -21.6849 -21.6849 -21.6849 -21.6849 -21.6849 -21.6849 -21.6849 -21.6849
   -21.6849 -21.6849 -21.6849 -21.6849 -21.6849 -21.6849 -21.6849 -21.6849
   -21.6824 -21.6824 -21.6824 -21.6824 -21.6824 -21.6824 -21.6824 -21.6824
   -21.6824 -21.6824 -21.6824 -21.6824 -21.6824 -21.6824 -21.6824 -21.6824
   -21.6824 -21.6824 -21.6824 -21.6824 -21.6824 -21.6824 -21.6824 -21.6824
   -21.6821 -21.6821 -21.6821 -21.6821 -21.6821 -21.6821 -21.6821 -21.6821
   -21.6821 -21.6821 -21.6821 -21.6821 -21.6821 -21.6821 -21.6821 -21.6821
   -21.6821 -21.6821 -21.6821 -21.6821 -21.6821 -21.6821 -21.6821 -21.6821
   -21.6800 -21.6800 -21.6800 -21.6800 -21.6800 -21.6800 -21.6800 -21.6800
   -21.6797 -21.6797 -21.6797 -21.6797 -21.6797 -21.6797 -21.6797 -21.6797
   -21.6797 -21.6797 -21.6797 -21.6797 -21.6797 -21.6797 -21.6797 -21.6797
   -21.6312 -21.6312 -21.6312 -21.6312 -21.6312 -21.6312 -21.6312 -21.6312
   -21.6306 -21.6306 -21.6306 -21.6306 -21.6306 -21.6306 -21.6306 -21.6306
   -21.6306 -21.6306 -21.6306 -21.6306 -21.6306 -21.6306 -21.6306 -21.6306
   -21.6287 -21.6287 -21.6287 -21.6287 -21.6287 -21.6287 -21.6287 -21.6287
   -21.6287 -21.6287 -21.6287 -21.6287 -21.6287 -21.6287 -21.6287 -21.6287
   -21.6287 -21.6287 -21.6287 -21.6287 -21.6287 -21.6287 -21.6287 -21.6287
   -21.6285 -21.6285 -21.6285 -21.6285 -21.6285 -21.6285 -21.6285 -21.6285
   -21.6285 -21.6285 -21.6285 -21.6285 -21.6285 -21.6285 -21.6285 -21.6285
   -21.6285 -21.6285 -21.6285 -21.6285 -21.6285 -21.6285 -21.6285 -21.6285
   -21.6263 -21.6263 -21.6263 -21.6263 -21.6263 -21.6263 -21.6263 -21.6263
   -21.6263 -21.6263 -21.6263 -21.6263 -21.6263 -21.6263 -21.6263 -21.6263
   -21.6263 -21.6263 -21.6263 -21.6263 -21.6263 -21.6263 -21.6263 -21.6263
    -6.6213  -6.6213  -6.6213  -6.6213  -6.6213  -6.6213  -6.6213  -6.6213
    -6.2279  -6.2279  -6.2279  -6.2279  -6.2279  -6.2279  -6.2279  -6.2279
    -6.2279  -6.2279  -6.2279  -6.2279  -6.2279  -6.2279  -6.2279  -6.2279
    -6.2279  -6.2279  -6.2279  -6.2279  -6.2279  -6.2279  -6.2279  -6.2279
    -6.0156  -6.0156  -6.0156  -6.0156  -6.0156  -6.0156  -6.0156  -6.0156
    -6.0156  -6.0156  -6.0156  -6.0156  -6.0156  -6.0156  -6.0156  -6.0156
    -6.0156  -6.0156  -6.0156  -6.0156  -6.0156  -6.0156  -6.0156  -6.0156
    -5.6299  -5.6299  -5.6299  -5.6299  -5.6299  -5.6299  -5.6299  -5.6299
    -5.5759  -5.5759  -5.5759  -5.5759  -5.5759  -5.5759  -5.5759  -5.5759
    -5.5759  -5.5759  -5.5759  -5.5759  -5.5759  -5.5759  -5.5759  -5.5759
    -5.4637  -5.4637  -5.4637  -5.4637  -5.4637  -5.4637  -5.4637  -5.4637
    -5.4637  -5.4637  -5.4637  -5.4637  -5.4637  -5.4637  -5.4637  -5.4637
    -5.4637  -5.4637  -5.4637  -5.4637  -5.4637  -5.4637  -5.4637  -5.4637
    -5.4614  -5.4614  -5.4614  -5.4614  -5.4614  -5.4614  -5.4614  -5.4614
    -5.4614  -5.4614  -5.4614  -5.4614  -5.4614  -5.4614  -5.4614  -5.4614
    -5.4162  -5.4162  -5.4162  -5.4162  -5.4162  -5.4162  -5.4162  -5.4162
    -5.4162  -5.4162  -5.4162  -5.4162  -5.4162  -5.4162  -5.4162  -5.4162
    -5.4162  -5.4162  -5.4162  -5.4162  -5.4162  -5.4162  -5.4162  -5.4162
    -5.3446  -5.3446  -5.3446  -5.3446  -5.3446  -5.3446  -5.3446  -5.3446
    -5.3446  -5.3446  -5.3446  -5.3446  -5.3446  -5.3446  -5.3446  -5.3446
    -5.3446  -5.3446  -5.3446  -5.3446  -5.3446  -5.3446  -5.3446  -5.3446
    -5.2791  -5.2791  -5.2791  -5.2791  -5.2791  -5.2791  -5.2791  -5.2791
    -5.2791  -5.2791  -5.2791  -5.2791  -5.2791  -5.2791  -5.2791  -5.2791
    -5.2791  -5.2791  -5.2791  -5.2791  -5.2791  -5.2791  -5.2791  -5.2791
    -4.3579  -4.3579  -4.3579  -4.3579  -4.3579  -4.3579  -4.3579  -4.3579
    -4.3579  -4.3579  -4.3579  -4.3579  -4.3579  -4.3579  -4.3579  -4.3579
    -4.3579  -4.3579  -4.3579  -4.3579  -4.3579  -4.3579  -4.3579  -4.3579
    -4.3327  -4.3327  -4.3327  -4.3327  -4.3327  -4.3327  -4.3327  -4.3327
[...]
    14.3231  14.3231  14.3231  14.3231  14.3231  14.3231  14.3231  14.3231
    14.3231  14.3231  14.3231  14.3231  14.3231  14.3231  14.3231  14.3231
    14.3231  14.3231  14.3231  14.3231  14.3231  14.3231  14.3231  14.3231
    14.3596  14.3596  14.3596  14.3596  14.3596  14.3596  14.3596  14.3596
    14.3825  14.3825  14.3825  14.3825  14.3825  14.3825  14.3825  14.3825
    14.3825  14.3825  14.3825  14.3825  14.3825  14.3825  14.3825  14.3825
    14.3825  14.3825  14.3825  14.3825  14.3825  14.3825  14.3825  14.3825
    14.3940  14.3940  14.3940  14.3940  14.3940  14.3940  14.3940  14.3940
    14.3940  14.3940  14.3940  14.3940  14.3940  14.3940  14.3940  14.3940
    14.3940  14.3940  14.3940  14.3940  14.3940  14.3940  14.3940  14.3940
    14.6780  14.6780  14.6780  14.6780  14.6780  14.6780  14.6780  14.6780
    14.6780  14.6780  14.6780  14.6780  14.6780  14.6780  14.6780  14.6780
    14.8334  14.8334  14.8334  14.8334  14.8334  14.8334  14.8334  14.8334
    14.8334  14.8334  14.8334  14.8334  14.8334  14.8334  14.8334  14.8334
    14.8334  14.8334  14.8334  14.8334  14.8334  14.8334  14.8334  14.8334

     highest occupied, lowest unoccupied level (ev):    10.5315   13.2175

!    total energy              =  -21356.32153198 Ry
     estimated scf accuracy    <          2.4E-09 Ry

     The total energy is the sum of the following terms:
     one-electron contribution =   -5115.96589919 Ry
     hartree contribution      =    4315.19676361 Ry
     xc contribution           =   -3175.29581602 Ry
     ewald contribution        =  -17380.25658038 Ry

     convergence has been achieved in  18 iterations

     Writing output data file ./pwscf.save/

     General routines

     Parallel routines

   This run was terminated on:  13:35:55   7Jul2021

   JOB DONE.