     Program PWSCF v.6.6 starts on  1Jul2021 at 22:51:36

     K-points division:     npool     =       4
     R & G space division:  proc/nbgrp/npool/nimage =      12
     Fft bands division:     nmany     =       1
     Reading input from ../inputs/input_perovskite_5

     Current dimensions of program PWSCF are:
     Max number of different atomic species (ntypx) = 10
     Max number of k-points (npk) =  40000
     Max angular momentum in pseudopotentials (lmaxx) =  3

     Subspace diagonalization in iterative solution of the eigenvalue problem:
     one sub-group per band group will be used

     bravais-lattice index     =            1
     lattice parameter (alat)  =       7.3699  a.u.
     unit-cell volume          =     400.2993 (a.u.)^3
     number of atoms/cell      =            5
     number of atomic types    =            3
     number of electrons       =        44.00
     number of Kohn-Sham states=           25
     kinetic-energy cutoff     =      25.0000  Ry
     charge density cutoff     =     240.0000  Ry
     convergence threshold     =      1.0E-12
     mixing beta               =       0.3000
     number of iterations used =            8  plain     mixing
     Exchange-correlation=  SLA  PZ   NOGX NOGC
                           (   1   1   0   0   0   0   0)

     celldm(1)=   7.369900  celldm(2)=   0.000000  celldm(3)=   0.000000
     celldm(4)=   0.000000  celldm(5)=   0.000000  celldm(6)=   0.000000

     crystal axes: (cart. coord. in units of alat)
               a(1) = (   1.000000   0.000000   0.000000 )
               a(2) = (   0.000000   1.000000   0.000000 )
               a(3) = (   0.000000   0.000000   1.000000 )

     reciprocal axes: (cart. coord. in units 2 pi/alat)
               b(1) = (  1.000000  0.000000  0.000000 )
               b(2) = (  0.000000  1.000000  0.000000 )
               b(3) = (  0.000000  0.000000  1.000000 )

     PseudoPot. # 1 for Pb read from file:
     /marconi/home/userexternal/czeni000/dft_src/pseudo/Pb.pz-d-van.UPF
     MD5 check sum: 4e1e5920686a026ae26139ac417581ff
     Pseudo is Ultrasoft, Zval = 14.0
     Generated by new atomic code, or converted to UPF format
     Using radial grid of  899 points,  6 beta functions with:
                l(1) =   0
                l(2) =   0
                l(3) =   1
                l(4) =   1
                l(5) =   2
                l(6) =   2
     Q(r) pseudized with  8 coefficients,  rinner =    1.000   1.000   1.000
                                                       1.000   1.000

     PseudoPot. # 2 for Ti read from file:
     /marconi/home/userexternal/czeni000/dft_src/pseudo/Ti.pz-sp-van_ak.UPF
     MD5 check sum: 545d0e6e05332b8871a8093f427cb0ca
     Pseudo is Ultrasoft, Zval = 12.0
     Generated by new atomic code, or converted to UPF format
     Using radial grid of  851 points,  6 beta functions with:
                l(1) =   0
                l(2) =   0
                l(3) =   1
                l(4) =   1
                l(5) =   2
                l(6) =   2
     Q(r) pseudized with  8 coefficients,  rinner =    1.000   1.000   1.000
                                                       1.000   1.000

     PseudoPot. # 3 for O  read from file:
     /marconi/home/userexternal/czeni000/dft_src/pseudo/O.pz-van_ak.UPF
     MD5 check sum: d814fcb982dd9af4fc6452aae6bb9318
     Pseudo is Ultrasoft, Zval =  6.0
     Generated by new atomic code, or converted to UPF format
     Using radial grid of  737 points,  4 beta functions with:
                l(1) =   0
                l(2) =   0
                l(3) =   1
                l(4) =   1
     Q(r) pseudized with  8 coefficients,  rinner =    0.800   0.800   0.800

     atomic species   valence    mass     pseudopotential
        Pb            14.00   207.20000     Pb( 1.00)
        Ti            12.00    47.86700     Ti( 1.00)
        O              6.00    15.99940     O ( 1.00)

      8 Sym. Ops. (no inversion) found

   Cartesian axes

     site n.     atom                  positions (alat units)
         1           Pb  tau(   1) = (   0.0000000   0.0000000   0.1000000  )
         2           Ti  tau(   2) = (   0.5000000   0.5000000   0.5000000  )
         3           O   tau(   3) = (   0.0000000   0.5000000   0.5000000  )
         4           O   tau(   4) = (   0.5000000   0.5000000   0.0000000  )
         5           O   tau(   5) = (   0.5000000   0.0000000   0.5000000  )

     number of k points=     6
                       cart. coord. in units 2pi/alat
        k(    1) = (   0.1250000   0.1250000   0.1250000), wk =   0.2500000
        k(    2) = (   0.1250000   0.1250000   0.3750000), wk =   0.2500000
        k(    3) = (   0.1250000   0.3750000   0.3750000), wk =   0.5000000
        k(    4) = (   0.3750000   0.3750000   0.3750000), wk =   0.2500000
        k(    5) = (   0.3750000  -0.1250000   0.1250000), wk =   0.5000000
        k(    6) = (   0.3750000  -0.3750000   0.1250000), wk =   0.2500000

     Initial potential from superposition of free atoms

     starting charge   42.99817, renormalised to   44.00000
     Starting wfcs are   31 randomized atomic wfcs

     Self-consistent Calculation

     iteration #  1     ecut=    25.00 Ry     beta= 0.30
     Davidson diagonalization with overlap
     ethr =  1.00E-02,  avg # of iterations =  2.0

     total energy              =    -333.54919000 Ry
     estimated scf accuracy    <       0.94427611 Ry

[...]

     total energy              =    -333.68234422 Ry
     estimated scf accuracy    <          1.2E-12 Ry

     iteration # 22     ecut=    25.00 Ry     beta= 0.30
     Davidson diagonalization with overlap
     ethr =  1.00E-13,  avg # of iterations =  1.0

     End of self-consistent calculation

          k = 0.1250 0.1250 0.1250 (   835 PWs)   bands (ev):

   -45.1530 -21.7744 -21.7740 -21.7108  -6.8630  -5.9641  -5.5482  -4.2032
    -4.1967  -4.1654  -4.0507  -3.8905   4.3438   6.8966   6.9550   7.8610
     8.7221   8.7924   9.3629   9.6175   9.6507   9.8854  13.0776  13.1785
    13.1875

[...]

          k = 0.3750-0.3750 0.1250 (   846 PWs)   bands (ev):

   -45.1510 -21.8273 -21.8269 -21.7062  -6.0190  -5.7175  -5.6419  -4.2091
    -4.1468  -4.0234  -3.9036  -3.9004   3.0012   6.3234   6.4308   6.8777
     7.1962   8.4436   9.1372   9.1997   9.9279  10.1220  14.1189  14.2185
    14.6254

     highest occupied, lowest unoccupied level (ev):    10.6536   13.0198

!    total energy              =    -333.68234422 Ry
     estimated scf accuracy    <          7.5E-14 Ry

     The total energy is the sum of the following terms:
     one-electron contribution =     -84.34210142 Ry
     hartree contribution      =      69.56249189 Ry
     xc contribution           =     -49.67040481 Ry
     ewald contribution        =    -269.23232990 Ry

     convergence has been achieved in  22 iterations

     Forces acting on atoms (cartesian axes, Ry/au):

     atom    1 type  1   force =     0.00000000    0.00000000   -0.03796360
     atom    2 type  2   force =     0.00000000    0.00000000    0.03987549
     atom    3 type  3   force =     0.00000000    0.00000000   -0.00712948
     atom    4 type  3   force =     0.00000000    0.00000000    0.01234707
     atom    5 type  3   force =     0.00000000    0.00000000   -0.00712948

     Total force =     0.057318     Total SCF correction =     0.000000

     Writing output data file ./pwscf.save/

     General routines

     Parallel routines

   This run was terminated on:  22:51:39   1Jul2021

   JOB DONE.