     Program PWSCF v.6.6 starts on  1Jul2021 at 23:11: 3

     K-points division:     npool     =       2
     R & G space division:  proc/nbgrp/npool/nimage =      12
     wavefunctions fft division:  Y-proc x Z-proc =       4      3
     wavefunctions fft division:  task group distribution
                                  #TG    x Z-proc =       4      3
     Fft bands division:     nmany     =       1
     Reading input from ../inputs/input_perovskite_40

     Current dimensions of program PWSCF are:
     Max number of different atomic species (ntypx) = 10
     Max number of k-points (npk) =  40000
     Max angular momentum in pseudopotentials (lmaxx) =  3

     Subspace diagonalization in iterative solution of the eigenvalue problem:
     one sub-group per band group will be used

     Found symmetry operation: I + (  0.0000  0.0000 -0.5000)
     This is a supercell, fractional translations are disabled
     Message from routine divide_et_impera:
     suboptimal parallelization: some nodes have no k-points

     bravais-lattice index     =            1
     lattice parameter (alat)  =      14.7398  a.u.
     unit-cell volume          =    3202.3941 (a.u.)^3
     number of atoms/cell      =           40
     number of atomic types    =            3
     number of electrons       =       352.00
     number of Kohn-Sham states=          200
     kinetic-energy cutoff     =      25.0000  Ry
     charge density cutoff     =     240.0000  Ry
     convergence threshold     =      1.0E-08
     mixing beta               =       0.3000
     number of iterations used =            8  plain     mixing
     Exchange-correlation=  SLA  PZ   NOGX NOGC
                           (   1   1   0   0   0   0   0)

     celldm(1)=  14.739800  celldm(2)=   0.000000  celldm(3)=   0.000000
     celldm(4)=   0.000000  celldm(5)=   0.000000  celldm(6)=   0.000000

     crystal axes: (cart. coord. in units of alat)
               a(1) = (   1.000000   0.000000   0.000000 )
               a(2) = (   0.000000   1.000000   0.000000 )
               a(3) = (   0.000000   0.000000   1.000000 )

     reciprocal axes: (cart. coord. in units 2 pi/alat)
               b(1) = (  1.000000  0.000000  0.000000 )
               b(2) = (  0.000000  1.000000  0.000000 )
               b(3) = (  0.000000  0.000000  1.000000 )

     PseudoPot. # 1 for Pb read from file:
     /marconi/home/userexternal/czeni000/dft_src/pseudo/Pb.pz-d-van.UPF
     MD5 check sum: 4e1e5920686a026ae26139ac417581ff
     Pseudo is Ultrasoft, Zval = 14.0
     Generated by new atomic code, or converted to UPF format
     Using radial grid of  899 points,  6 beta functions with:
                l(1) =   0
                l(2) =   0
                l(3) =   1
                l(4) =   1
                l(5) =   2
                l(6) =   2
     Q(r) pseudized with  8 coefficients,  rinner =    1.000   1.000   1.000
                                                       1.000   1.000

     PseudoPot. # 2 for Ti read from file:
     /marconi/home/userexternal/czeni000/dft_src/pseudo/Ti.pz-sp-van_ak.UPF
     MD5 check sum: 545d0e6e05332b8871a8093f427cb0ca
     Pseudo is Ultrasoft, Zval = 12.0
     Generated by new atomic code, or converted to UPF format
     Using radial grid of  851 points,  6 beta functions with:
                l(1) =   0
                l(2) =   0
                l(3) =   1
                l(4) =   1
                l(5) =   2
                l(6) =   2
     Q(r) pseudized with  8 coefficients,  rinner =    1.000   1.000   1.000
                                                       1.000   1.000

     PseudoPot. # 3 for O  read from file:
     /marconi/home/userexternal/czeni000/dft_src/pseudo/O.pz-van_ak.UPF
     MD5 check sum: d814fcb982dd9af4fc6452aae6bb9318
     Pseudo is Ultrasoft, Zval =  6.0
     Generated by new atomic code, or converted to UPF format
     Using radial grid of  737 points,  4 beta functions with:
                l(1) =   0
                l(2) =   0
                l(3) =   1
                l(4) =   1
     Q(r) pseudized with  8 coefficients,  rinner =    0.800   0.800   0.800

     atomic species   valence    mass     pseudopotential
        Pb            14.00   207.20000     Pb( 1.00)
        Ti            12.00    47.86700     Ti( 1.00)
        O              6.00    15.99940     O ( 1.00)

     48 Sym. Ops., with inversion, found

   Cartesian axes

     site n.     atom                  positions (alat units)
         1           Pb  tau(   1) = (   0.0000000   0.0000000   0.0000000  )
         2           Pb  tau(   2) = (   0.0000000   0.0000000   0.5000000  )
         3           Pb  tau(   3) = (   0.0000000   0.5000000   0.0000000  )
         4           Pb  tau(   4) = (   0.0000000   0.5000000   0.5000000  )
         5           Pb  tau(   5) = (   0.5000000   0.0000000   0.0000000  )
         6           Pb  tau(   6) = (   0.5000000   0.0000000   0.5000000  )
         7           Pb  tau(   7) = (   0.5000000   0.5000000   0.0000000  )
         8           Pb  tau(   8) = (   0.5000000   0.5000000   0.5000000  )
         9           Ti  tau(   9) = (   0.2500000   0.2500000   0.2500000  )
        10           Ti  tau(  10) = (   0.2500000   0.2500000   0.7500000  )
        11           Ti  tau(  11) = (   0.2500000   0.7500000   0.2500000  )
        12           Ti  tau(  12) = (   0.2500000   0.7500000   0.7500000  )
        13           Ti  tau(  13) = (   0.7500000   0.2500000   0.2500000  )
        14           Ti  tau(  14) = (   0.7500000   0.2500000   0.7500000  )
        15           Ti  tau(  15) = (   0.7500000   0.7500000   0.2500000  )
        16           Ti  tau(  16) = (   0.7500000   0.7500000   0.7500000  )
        17           O   tau(  17) = (   0.0000000   0.2500000   0.2500000  )
        18           O   tau(  18) = (   0.0000000   0.2500000   0.7500000  )
        19           O   tau(  19) = (   0.0000000   0.7500000   0.2500000  )
        20           O   tau(  20) = (   0.0000000   0.7500000   0.7500000  )
        21           O   tau(  21) = (   0.5000000   0.2500000   0.2500000  )
        22           O   tau(  22) = (   0.5000000   0.2500000   0.7500000  )
        23           O   tau(  23) = (   0.5000000   0.7500000   0.2500000  )
        24           O   tau(  24) = (   0.5000000   0.7500000   0.7500000  )
        25           O   tau(  25) = (   0.2500000   0.2500000   0.0000000  )
        26           O   tau(  26) = (   0.2500000   0.2500000   0.5000000  )
        27           O   tau(  27) = (   0.2500000   0.7500000   0.0000000  )
        28           O   tau(  28) = (   0.2500000   0.7500000   0.5000000  )
        29           O   tau(  29) = (   0.7500000   0.2500000   0.0000000  )
        30           O   tau(  30) = (   0.7500000   0.2500000   0.5000000  )
        31           O   tau(  31) = (   0.7500000   0.7500000   0.0000000  )
        32           O   tau(  32) = (   0.7500000   0.7500000   0.5000000  )
        33           O   tau(  33) = (   0.2500000   0.0000000   0.2500000  )
        34           O   tau(  34) = (   0.2500000   0.0000000   0.7500000  )
        35           O   tau(  35) = (   0.2500000   0.5000000   0.2500000  )
        36           O   tau(  36) = (   0.2500000   0.5000000   0.7500000  )
        37           O   tau(  37) = (   0.7500000   0.0000000   0.2500000  )
        38           O   tau(  38) = (   0.7500000   0.0000000   0.7500000  )
        39           O   tau(  39) = (   0.7500000   0.5000000   0.2500000  )
        40           O   tau(  40) = (   0.7500000   0.5000000   0.7500000  )

     number of k points=     1
                       cart. coord. in units 2pi/alat
        k(    1) = (   0.2500000   0.2500000   0.2500000), wk =   2.0000000

     Initial potential from superposition of free atoms

     starting charge  343.98532, renormalised to  352.00000
     Starting wfcs are  248 randomized atomic wfcs

     Self-consistent Calculation

     iteration #  1     ecut=    25.00 Ry     beta= 0.30
     Davidson diagonalization with overlap
     ethr =  1.00E-02,  avg # of iterations =  2.0

     total energy              =   -2668.49707208 Ry
     estimated scf accuracy    <       7.82477194 Ry

[...]

     total energy              =   -2669.54019147 Ry
     estimated scf accuracy    <       0.00000002 Ry

     iteration # 16     ecut=    25.00 Ry     beta= 0.30
     Davidson diagonalization with overlap
     ethr =  6.49E-12,  avg # of iterations =  3.0

     End of self-consistent calculation

          k = 0.2500 0.2500 0.2500 (  6746 PWs)   bands (ev):

   -45.0351 -45.0342 -45.0342 -45.0342 -45.0331 -45.0331 -45.0331 -45.0317
   -21.6850 -21.6850 -21.6850 -21.6824 -21.6824 -21.6824 -21.6821 -21.6821
   -21.6821 -21.6801 -21.6797 -21.6797 -21.6312 -21.6306 -21.6306 -21.6287
   -21.6287 -21.6287 -21.6285 -21.6285 -21.6285 -21.6263 -21.6263 -21.6263
    -6.6212  -6.2278  -6.2278  -6.2278  -6.0155  -6.0155  -6.0155  -5.6299
    -5.5759  -5.5759  -5.4637  -5.4637  -5.4637  -5.4614  -5.4614  -5.4162
    -5.4162  -5.4162  -5.3446  -5.3446  -5.3446  -5.2790  -5.2790  -5.2790
    -4.3579  -4.3579  -4.3579  -4.3327  -4.3327  -4.3327  -4.3005  -4.3005
    -4.2958  -4.2958  -4.2958  -4.2922  -4.2922  -4.2922  -4.2876  -4.2844
    -4.2844  -4.2844  -4.2502  -4.2502  -4.2425  -4.2425  -4.2425  -4.2237
    -4.2237  -4.2237  -4.1608  -4.1608  -4.1608  -4.1323  -4.1323  -4.1042
    -4.1042  -4.1042  -4.0186  -4.0186  -4.0186  -3.9812  -3.9199  -3.9199
     3.3024   3.3024   3.3024   3.6441   3.6441   3.6441   3.9151   4.3452
     5.7455   5.7455   6.4384   6.5547   6.5547   6.5547   6.5958   6.5958
     6.5958   6.6163   6.6163   6.6163   6.8087   6.8087   6.9558   6.9558
     6.9558   7.0589   7.0589   7.1110   7.1110   7.1110   7.2654   7.2654
     7.2654   7.5881   7.5881   7.5881   7.6788   7.7772   8.1828   8.1828
     8.1828   8.3976   8.3976   8.3976   8.4929   8.4929   8.4929   8.8951
     8.8951   9.1196   9.1196   9.1196   9.1778   9.1778   9.1778   9.2246
     9.2246   9.2246   9.6415   9.6924   9.6924   9.6924   9.7125   9.7125
     9.7179   9.7179   9.7179   9.8152   9.8504   9.8504   9.8504  10.4223
    10.4223  10.4611  10.4611  10.4611  10.4913  10.5315  10.5315  10.5315
    13.2175  13.2175  13.2175  13.2839  13.3009  13.3009  14.1881  14.1881
    14.1881  14.3231  14.3231  14.3231  14.3595  14.3825  14.3825  14.3825
    14.3940  14.3940  14.3940  14.6780  14.6780  14.8334  14.8334  14.8334

     highest occupied, lowest unoccupied level (ev):    10.5315   13.2175

!    total energy              =   -2669.54019150 Ry
     estimated scf accuracy    <          2.7E-09 Ry

     The total energy is the sum of the following terms:
     one-electron contribution =    -639.49572050 Ry
     hartree contribution      =     539.39952035 Ry
     xc contribution           =    -396.91191880 Ry
     ewald contribution        =   -2172.53207255 Ry

     convergence has been achieved in  16 iterations

     Writing output data file ./pwscf.save/

     General routines

     Parallel routines

   This run was terminated on:  23:11:11   1Jul2021

   JOB DONE.